*SPEF "ieee 1481-1999"
*DESIGN "housekeeping_spi"
*DATE "11:11:11 Fri 11 11, 1111"
*VENDOR "OpenRCX"
*PROGRAM "Parallel Extraction"
*VERSION "1.0"
*DESIGN_FLOW "NAME_SCOPE LOCAL" "PIN_CAP NONE"
*DIVIDER /
*DELIMITER :
*BUS_DELIMITER []
*T_UNIT 1 NS
*C_UNIT 1 PF
*R_UNIT 1 OHM
*L_UNIT 1 HENRY

*NAME_MAP
*1 CSB
*2 SCK
*3 SDI
*4 SDO
*7 idata[0]
*8 idata[1]
*9 idata[2]
*10 idata[3]
*11 idata[4]
*12 idata[5]
*13 idata[6]
*14 idata[7]
*15 oaddr[0]
*16 oaddr[1]
*17 oaddr[2]
*18 oaddr[3]
*19 oaddr[4]
*20 oaddr[5]
*21 oaddr[6]
*22 oaddr[7]
*23 odata[0]
*24 odata[1]
*25 odata[2]
*26 odata[3]
*27 odata[4]
*28 odata[5]
*29 odata[6]
*30 odata[7]
*31 pass_thru_mgmt
*32 pass_thru_mgmt_delay
*33 pass_thru_mgmt_reset
*34 pass_thru_user
*35 pass_thru_user_delay
*36 pass_thru_user_reset
*37 rdstb
*38 reset
*39 sdoenb
*40 wrstb
*41 _000_
*42 _001_
*43 _002_
*44 _003_
*45 _004_
*46 _005_
*47 _006_
*48 _007_
*49 _008_
*50 _009_
*51 _010_
*52 _011_
*53 _012_
*54 _013_
*55 _014_
*56 _015_
*57 _016_
*58 _017_
*59 _018_
*60 _019_
*61 _020_
*62 _021_
*63 _022_
*64 _023_
*65 _024_
*66 _025_
*67 _026_
*68 _027_
*69 _028_
*70 _029_
*71 _030_
*72 _031_
*73 _032_
*74 _033_
*75 _034_
*76 _035_
*77 _037_
*78 _038_
*79 _040_
*80 _041_
*81 _042_
*82 _043_
*83 _044_
*84 _045_
*85 _047_
*86 _049_
*87 _051_
*88 _053_
*89 _055_
*90 _057_
*91 _059_
*92 _061_
*93 _062_
*94 _063_
*95 _064_
*96 _065_
*97 _066_
*98 _067_
*99 _068_
*100 _069_
*101 _070_
*102 _071_
*103 _072_
*104 _073_
*105 _074_
*106 _075_
*107 _076_
*108 _077_
*109 _078_
*110 _079_
*111 _080_
*112 _081_
*113 _082_
*114 _083_
*115 _084_
*116 _085_
*117 _086_
*118 _087_
*119 _088_
*120 _089_
*121 _090_
*122 _091_
*123 _092_
*124 _093_
*125 _094_
*126 _095_
*127 _096_
*128 _097_
*129 _098_
*130 _099_
*131 _100_
*132 _101_
*133 _102_
*134 _103_
*135 _104_
*136 _105_
*137 _106_
*138 _107_
*139 _108_
*140 _109_
*141 _110_
*142 _111_
*143 _112_
*144 _113_
*145 _114_
*146 _115_
*147 _116_
*148 _117_
*149 _118_
*150 _119_
*151 _120_
*152 _121_
*153 _122_
*154 _123_
*155 _124_
*156 _125_
*157 _126_
*158 _127_
*159 _128_
*160 _129_
*161 _130_
*162 _131_
*163 _132_
*164 _133_
*165 _134_
*166 _135_
*167 _136_
*168 _137_
*169 _138_
*170 _139_
*171 _140_
*172 _141_
*173 _142_
*174 _143_
*175 _144_
*176 _145_
*177 _146_
*178 _147_
*179 _148_
*180 _149_
*181 _150_
*182 _151_
*183 _152_
*184 _153_
*185 _154_
*186 _155_
*187 _156_
*188 _157_
*189 _158_
*190 _159_
*191 _160_
*192 _161_
*193 _162_
*194 _163_
*195 _164_
*196 _165_
*197 _166_
*198 _167_
*199 _168_
*200 _169_
*201 _170_
*202 _171_
*203 _172_
*204 _173_
*205 _174_
*206 _175_
*207 _176_
*208 _177_
*209 _178_
*210 _179_
*211 _180_
*212 _181_
*213 _182_
*214 _183_
*215 _184_
*216 _185_
*217 _186_
*218 _187_
*219 _188_
*220 _189_
*221 _190_
*222 _191_
*223 _192_
*224 _193_
*225 _194_
*226 _195_
*227 _196_
*228 _197_
*229 _198_
*230 _199_
*231 _200_
*232 _201_
*233 _202_
*234 _203_
*235 _204_
*236 _205_
*237 _206_
*238 _207_
*239 _208_
*240 _209_
*241 _210_
*242 _211_
*243 _212_
*244 _213_
*245 _214_
*246 _215_
*247 _216_
*248 _217_
*249 _218_
*250 _219_
*251 _220_
*252 _221_
*253 addr\[0\]
*254 addr\[1\]
*255 addr\[2\]
*256 addr\[3\]
*257 addr\[4\]
*258 addr\[5\]
*259 addr\[6\]
*260 addr\[7\]
*261 clknet_0_SCK
*262 clknet_0__221_
*263 clknet_1_0__leaf__221_
*264 clknet_1_1__leaf__221_
*265 clknet_2_0__leaf_SCK
*266 clknet_2_1__leaf_SCK
*267 clknet_2_2__leaf_SCK
*268 clknet_2_3__leaf_SCK
*269 count\[0\]
*270 count\[1\]
*271 count\[2\]
*272 fixed\[0\]
*273 fixed\[1\]
*274 fixed\[2\]
*275 ldata\[0\]
*276 ldata\[1\]
*277 ldata\[2\]
*278 ldata\[3\]
*279 ldata\[4\]
*280 ldata\[5\]
*281 ldata\[6\]
*282 net1
*283 net10
*284 net11
*285 net12
*286 net13
*287 net14
*288 net15
*289 net16
*290 net17
*291 net18
*292 net19
*293 net2
*294 net20
*295 net21
*296 net22
*297 net23
*298 net24
*299 net25
*300 net26
*301 net27
*302 net28
*303 net29
*304 net3
*305 net30
*306 net31
*307 net32
*308 net33
*309 net34
*310 net35
*311 net36
*312 net37
*313 net38
*314 net39
*315 net4
*316 net40
*317 net41
*318 net42
*319 net43
*320 net44
*321 net45
*322 net46
*323 net47
*324 net48
*325 net49
*326 net5
*327 net50
*328 net51
*329 net52
*330 net53
*331 net54
*332 net55
*333 net56
*334 net57
*335 net58
*336 net59
*337 net6
*338 net60
*339 net61
*340 net62
*341 net63
*342 net64
*343 net65
*344 net66
*345 net67
*346 net68
*347 net69
*348 net7
*349 net70
*350 net71
*351 net72
*352 net8
*353 net9
*354 pre_pass_thru_mgmt
*355 pre_pass_thru_user
*356 readmode
*357 state\[0\]
*358 state\[1\]
*359 state\[2\]
*360 state\[3\]
*361 state\[4\]
*362 writemode
*363 FILLER_0_0_104
*364 FILLER_0_0_113
*365 FILLER_0_0_119
*366 FILLER_0_0_126
*367 FILLER_0_0_134
*368 FILLER_0_0_138
*369 FILLER_0_0_156
*370 FILLER_0_0_162
*371 FILLER_0_0_169
*372 FILLER_0_0_174
*373 FILLER_0_0_20
*374 FILLER_0_0_3
*375 FILLER_0_0_38
*376 FILLER_0_0_60
*377 FILLER_0_0_7
*378 FILLER_0_0_72
*379 FILLER_0_0_85
*380 FILLER_0_0_97
*381 FILLER_0_10_109
*382 FILLER_0_10_125
*383 FILLER_0_10_135
*384 FILLER_0_10_139
*385 FILLER_0_10_141
*386 FILLER_0_10_151
*387 FILLER_0_10_163
*388 FILLER_0_10_175
*389 FILLER_0_10_181
*390 FILLER_0_10_29
*391 FILLER_0_10_3
*392 FILLER_0_10_67
*393 FILLER_0_10_83
*394 FILLER_0_10_97
*395 FILLER_0_11_108
*396 FILLER_0_11_121
*397 FILLER_0_11_133
*398 FILLER_0_11_145
*399 FILLER_0_11_15
*400 FILLER_0_11_157
*401 FILLER_0_11_165
*402 FILLER_0_11_169
*403 FILLER_0_11_175
*404 FILLER_0_11_26
*405 FILLER_0_11_3
*406 FILLER_0_11_38
*407 FILLER_0_11_46
*408 FILLER_0_11_50
*409 FILLER_0_11_57
*410 FILLER_0_11_63
*411 FILLER_0_11_84
*412 FILLER_0_11_96
*413 FILLER_0_12_105
*414 FILLER_0_12_11
*415 FILLER_0_12_125
*416 FILLER_0_12_133
*417 FILLER_0_12_138
*418 FILLER_0_12_150
*419 FILLER_0_12_156
*420 FILLER_0_12_160
*421 FILLER_0_12_166
*422 FILLER_0_12_176
*423 FILLER_0_12_23
*424 FILLER_0_12_27
*425 FILLER_0_12_29
*426 FILLER_0_12_41
*427 FILLER_0_12_48
*428 FILLER_0_12_6
*429 FILLER_0_12_60
*430 FILLER_0_12_72
*431 FILLER_0_12_85
*432 FILLER_0_12_93
*433 FILLER_0_13_111
*434 FILLER_0_13_113
*435 FILLER_0_13_146
*436 FILLER_0_13_178
*437 FILLER_0_13_24
*438 FILLER_0_13_3
*439 FILLER_0_13_32
*440 FILLER_0_13_37
*441 FILLER_0_13_49
*442 FILLER_0_13_57
*443 FILLER_0_13_65
*444 FILLER_0_13_73
*445 FILLER_0_13_81
*446 FILLER_0_13_87
*447 FILLER_0_14_10
*448 FILLER_0_14_112
*449 FILLER_0_14_128
*450 FILLER_0_14_152
*451 FILLER_0_14_181
*452 FILLER_0_14_22
*453 FILLER_0_14_3
*454 FILLER_0_14_76
*455 FILLER_0_15_103
*456 FILLER_0_15_111
*457 FILLER_0_15_113
*458 FILLER_0_15_117
*459 FILLER_0_15_126
*460 FILLER_0_15_149
*461 FILLER_0_15_161
*462 FILLER_0_15_166
*463 FILLER_0_15_18
*464 FILLER_0_15_26
*465 FILLER_0_15_3
*466 FILLER_0_15_32
*467 FILLER_0_15_44
*468 FILLER_0_15_60
*469 FILLER_0_15_79
*470 FILLER_0_16_135
*471 FILLER_0_16_161
*472 FILLER_0_16_17
*473 FILLER_0_16_25
*474 FILLER_0_16_29
*475 FILLER_0_16_39
*476 FILLER_0_16_51
*477 FILLER_0_16_61
*478 FILLER_0_16_73
*479 FILLER_0_16_81
*480 FILLER_0_16_88
*481 FILLER_0_16_9
*482 FILLER_0_16_94
*483 FILLER_0_17_116
*484 FILLER_0_17_124
*485 FILLER_0_17_128
*486 FILLER_0_17_140
*487 FILLER_0_17_152
*488 FILLER_0_17_167
*489 FILLER_0_17_169
*490 FILLER_0_17_173
*491 FILLER_0_17_24
*492 FILLER_0_17_3
*493 FILLER_0_17_30
*494 FILLER_0_17_55
*495 FILLER_0_17_57
*496 FILLER_0_17_7
*497 FILLER_0_17_97
*498 FILLER_0_18_123
*499 FILLER_0_18_129
*500 FILLER_0_18_133
*501 FILLER_0_18_139
*502 FILLER_0_18_141
*503 FILLER_0_18_147
*504 FILLER_0_18_151
*505 FILLER_0_18_159
*506 FILLER_0_18_164
*507 FILLER_0_18_173
*508 FILLER_0_18_181
*509 FILLER_0_18_23
*510 FILLER_0_18_27
*511 FILLER_0_18_29
*512 FILLER_0_18_3
*513 FILLER_0_18_41
*514 FILLER_0_18_47
*515 FILLER_0_18_71
*516 FILLER_0_18_83
*517 FILLER_0_18_85
*518 FILLER_0_18_97
*519 FILLER_0_19_110
*520 FILLER_0_19_121
*521 FILLER_0_19_144
*522 FILLER_0_19_152
*523 FILLER_0_19_16
*524 FILLER_0_19_162
*525 FILLER_0_19_169
*526 FILLER_0_19_175
*527 FILLER_0_19_28
*528 FILLER_0_19_3
*529 FILLER_0_19_40
*530 FILLER_0_19_44
*531 FILLER_0_19_48
*532 FILLER_0_19_57
*533 FILLER_0_19_62
*534 FILLER_0_19_7
*535 FILLER_0_19_74
*536 FILLER_0_19_86
*537 FILLER_0_19_90
*538 FILLER_0_19_94
*539 FILLER_0_1_103
*540 FILLER_0_1_111
*541 FILLER_0_1_12
*542 FILLER_0_1_156
*543 FILLER_0_1_167
*544 FILLER_0_1_172
*545 FILLER_0_1_178
*546 FILLER_0_1_24
*547 FILLER_0_1_54
*548 FILLER_0_1_57
*549 FILLER_0_1_65
*550 FILLER_0_1_86
*551 FILLER_0_20_121
*552 FILLER_0_20_137
*553 FILLER_0_20_14
*554 FILLER_0_20_149
*555 FILLER_0_20_181
*556 FILLER_0_20_20
*557 FILLER_0_20_29
*558 FILLER_0_20_37
*559 FILLER_0_20_6
*560 FILLER_0_20_74
*561 FILLER_0_20_82
*562 FILLER_0_20_93
*563 FILLER_0_21_106
*564 FILLER_0_21_11
*565 FILLER_0_21_113
*566 FILLER_0_21_125
*567 FILLER_0_21_148
*568 FILLER_0_21_163
*569 FILLER_0_21_167
*570 FILLER_0_21_180
*571 FILLER_0_21_28
*572 FILLER_0_21_3
*573 FILLER_0_21_38
*574 FILLER_0_21_55
*575 FILLER_0_21_61
*576 FILLER_0_21_74
*577 FILLER_0_22_108
*578 FILLER_0_22_114
*579 FILLER_0_22_120
*580 FILLER_0_22_139
*581 FILLER_0_22_141
*582 FILLER_0_22_153
*583 FILLER_0_22_16
*584 FILLER_0_22_165
*585 FILLER_0_22_177
*586 FILLER_0_22_181
*587 FILLER_0_22_29
*588 FILLER_0_22_3
*589 FILLER_0_22_41
*590 FILLER_0_22_49
*591 FILLER_0_22_53
*592 FILLER_0_22_65
*593 FILLER_0_22_77
*594 FILLER_0_22_83
*595 FILLER_0_22_96
*596 FILLER_0_23_10
*597 FILLER_0_23_111
*598 FILLER_0_23_119
*599 FILLER_0_23_125
*600 FILLER_0_23_154
*601 FILLER_0_23_166
*602 FILLER_0_23_169
*603 FILLER_0_23_180
*604 FILLER_0_23_22
*605 FILLER_0_23_34
*606 FILLER_0_23_46
*607 FILLER_0_23_54
*608 FILLER_0_23_57
*609 FILLER_0_23_75
*610 FILLER_0_23_87
*611 FILLER_0_23_99
*612 FILLER_0_24_121
*613 FILLER_0_24_129
*614 FILLER_0_24_133
*615 FILLER_0_24_139
*616 FILLER_0_24_141
*617 FILLER_0_24_153
*618 FILLER_0_24_160
*619 FILLER_0_24_172
*620 FILLER_0_24_178
*621 FILLER_0_24_29
*622 FILLER_0_24_3
*623 FILLER_0_24_35
*624 FILLER_0_24_39
*625 FILLER_0_24_62
*626 FILLER_0_24_77
*627 FILLER_0_24_83
*628 FILLER_0_24_88
*629 FILLER_0_24_96
*630 FILLER_0_25_113
*631 FILLER_0_25_119
*632 FILLER_0_25_143
*633 FILLER_0_25_147
*634 FILLER_0_25_16
*635 FILLER_0_25_178
*636 FILLER_0_25_27
*637 FILLER_0_25_3
*638 FILLER_0_25_39
*639 FILLER_0_25_54
*640 FILLER_0_25_57
*641 FILLER_0_25_69
*642 FILLER_0_26_10
*643 FILLER_0_26_109
*644 FILLER_0_26_128
*645 FILLER_0_26_141
*646 FILLER_0_26_145
*647 FILLER_0_26_152
*648 FILLER_0_26_164
*649 FILLER_0_26_170
*650 FILLER_0_26_22
*651 FILLER_0_26_3
*652 FILLER_0_26_38
*653 FILLER_0_26_50
*654 FILLER_0_26_62
*655 FILLER_0_26_66
*656 FILLER_0_26_70
*657 FILLER_0_26_82
*658 FILLER_0_26_85
*659 FILLER_0_26_97
*660 FILLER_0_27_105
*661 FILLER_0_27_111
*662 FILLER_0_27_113
*663 FILLER_0_27_125
*664 FILLER_0_27_137
*665 FILLER_0_27_149
*666 FILLER_0_27_15
*667 FILLER_0_27_161
*668 FILLER_0_27_167
*669 FILLER_0_27_27
*670 FILLER_0_27_3
*671 FILLER_0_27_39
*672 FILLER_0_27_51
*673 FILLER_0_27_55
*674 FILLER_0_27_60
*675 FILLER_0_27_72
*676 FILLER_0_27_84
*677 FILLER_0_27_96
*678 FILLER_0_28_121
*679 FILLER_0_28_125
*680 FILLER_0_28_136
*681 FILLER_0_28_15
*682 FILLER_0_28_152
*683 FILLER_0_28_156
*684 FILLER_0_28_180
*685 FILLER_0_28_27
*686 FILLER_0_28_3
*687 FILLER_0_28_32
*688 FILLER_0_28_41
*689 FILLER_0_28_77
*690 FILLER_0_28_83
*691 FILLER_0_28_88
*692 FILLER_0_29_101
*693 FILLER_0_29_109
*694 FILLER_0_29_15
*695 FILLER_0_29_151
*696 FILLER_0_29_177
*697 FILLER_0_29_181
*698 FILLER_0_29_23
*699 FILLER_0_29_49
*700 FILLER_0_29_55
*701 FILLER_0_29_57
*702 FILLER_0_29_91
*703 FILLER_0_29_97
*704 FILLER_0_2_108
*705 FILLER_0_2_116
*706 FILLER_0_2_124
*707 FILLER_0_2_136
*708 FILLER_0_2_144
*709 FILLER_0_2_15
*710 FILLER_0_2_156
*711 FILLER_0_2_3
*712 FILLER_0_2_44
*713 FILLER_0_2_56
*714 FILLER_0_2_66
*715 FILLER_0_2_78
*716 FILLER_0_2_96
*717 FILLER_0_30_104
*718 FILLER_0_30_113
*719 FILLER_0_30_123
*720 FILLER_0_30_135
*721 FILLER_0_30_139
*722 FILLER_0_30_141
*723 FILLER_0_30_149
*724 FILLER_0_30_16
*725 FILLER_0_30_165
*726 FILLER_0_30_169
*727 FILLER_0_30_29
*728 FILLER_0_30_3
*729 FILLER_0_30_37
*730 FILLER_0_30_41
*731 FILLER_0_30_53
*732 FILLER_0_30_57
*733 FILLER_0_30_65
*734 FILLER_0_30_77
*735 FILLER_0_30_83
*736 FILLER_0_30_91
*737 FILLER_0_30_99
*738 FILLER_0_3_101
*739 FILLER_0_3_109
*740 FILLER_0_3_136
*741 FILLER_0_3_148
*742 FILLER_0_3_15
*743 FILLER_0_3_160
*744 FILLER_0_3_169
*745 FILLER_0_3_181
*746 FILLER_0_3_3
*747 FILLER_0_3_48
*748 FILLER_0_3_77
*749 FILLER_0_3_89
*750 FILLER_0_4_109
*751 FILLER_0_4_121
*752 FILLER_0_4_129
*753 FILLER_0_4_134
*754 FILLER_0_4_141
*755 FILLER_0_4_150
*756 FILLER_0_4_158
*757 FILLER_0_4_181
*758 FILLER_0_4_21
*759 FILLER_0_4_27
*760 FILLER_0_4_29
*761 FILLER_0_4_42
*762 FILLER_0_4_54
*763 FILLER_0_4_65
*764 FILLER_0_4_77
*765 FILLER_0_4_83
*766 FILLER_0_4_85
*767 FILLER_0_4_9
*768 FILLER_0_4_97
*769 FILLER_0_5_106
*770 FILLER_0_5_15
*771 FILLER_0_5_160
*772 FILLER_0_5_175
*773 FILLER_0_5_181
*774 FILLER_0_5_27
*775 FILLER_0_5_3
*776 FILLER_0_5_50
*777 FILLER_0_5_64
*778 FILLER_0_5_76
*779 FILLER_0_5_84
*780 FILLER_0_5_92
*781 FILLER_0_6_121
*782 FILLER_0_6_133
*783 FILLER_0_6_139
*784 FILLER_0_6_141
*785 FILLER_0_6_15
*786 FILLER_0_6_158
*787 FILLER_0_6_168
*788 FILLER_0_6_180
*789 FILLER_0_6_27
*790 FILLER_0_6_29
*791 FILLER_0_6_3
*792 FILLER_0_6_41
*793 FILLER_0_6_65
*794 FILLER_0_6_75
*795 FILLER_0_6_83
*796 FILLER_0_7_100
*797 FILLER_0_7_104
*798 FILLER_0_7_113
*799 FILLER_0_7_130
*800 FILLER_0_7_142
*801 FILLER_0_7_15
*802 FILLER_0_7_154
*803 FILLER_0_7_166
*804 FILLER_0_7_169
*805 FILLER_0_7_177
*806 FILLER_0_7_27
*807 FILLER_0_7_3
*808 FILLER_0_7_38
*809 FILLER_0_7_50
*810 FILLER_0_7_74
*811 FILLER_0_7_88
*812 FILLER_0_8_131
*813 FILLER_0_8_141
*814 FILLER_0_8_153
*815 FILLER_0_8_175
*816 FILLER_0_8_181
*817 FILLER_0_8_29
*818 FILLER_0_8_3
*819 FILLER_0_8_41
*820 FILLER_0_8_53
*821 FILLER_0_8_62
*822 FILLER_0_8_74
*823 FILLER_0_8_82
*824 FILLER_0_8_85
*825 FILLER_0_9_10
*826 FILLER_0_9_102
*827 FILLER_0_9_111
*828 FILLER_0_9_113
*829 FILLER_0_9_121
*830 FILLER_0_9_130
*831 FILLER_0_9_163
*832 FILLER_0_9_167
*833 FILLER_0_9_169
*834 FILLER_0_9_181
*835 FILLER_0_9_27
*836 FILLER_0_9_3
*837 FILLER_0_9_39
*838 FILLER_0_9_48
*839 FILLER_0_9_57
*840 FILLER_0_9_67
*841 FILLER_0_9_79
*842 FILLER_0_9_91
*843 PHY_0
*844 PHY_1
*845 PHY_10
*846 PHY_11
*847 PHY_12
*848 PHY_13
*849 PHY_14
*850 PHY_15
*851 PHY_16
*852 PHY_17
*853 PHY_18
*854 PHY_19
*855 PHY_2
*856 PHY_20
*857 PHY_21
*858 PHY_22
*859 PHY_23
*860 PHY_24
*861 PHY_25
*862 PHY_26
*863 PHY_27
*864 PHY_28
*865 PHY_29
*866 PHY_3
*867 PHY_30
*868 PHY_31
*869 PHY_32
*870 PHY_33
*871 PHY_34
*872 PHY_35
*873 PHY_36
*874 PHY_37
*875 PHY_38
*876 PHY_39
*877 PHY_4
*878 PHY_40
*879 PHY_41
*880 PHY_42
*881 PHY_43
*882 PHY_44
*883 PHY_45
*884 PHY_46
*885 PHY_47
*886 PHY_48
*887 PHY_49
*888 PHY_5
*889 PHY_50
*890 PHY_51
*891 PHY_52
*892 PHY_53
*893 PHY_54
*894 PHY_55
*895 PHY_56
*896 PHY_57
*897 PHY_58
*898 PHY_59
*899 PHY_6
*900 PHY_60
*901 PHY_61
*902 PHY_7
*903 PHY_8
*904 PHY_9
*905 TAP_100
*906 TAP_101
*907 TAP_102
*908 TAP_103
*909 TAP_104
*910 TAP_105
*911 TAP_106
*912 TAP_107
*913 TAP_108
*914 TAP_109
*915 TAP_110
*916 TAP_111
*917 TAP_112
*918 TAP_113
*919 TAP_114
*920 TAP_115
*921 TAP_116
*922 TAP_117
*923 TAP_118
*924 TAP_119
*925 TAP_120
*926 TAP_121
*927 TAP_122
*928 TAP_123
*929 TAP_124
*930 TAP_125
*931 TAP_126
*932 TAP_127
*933 TAP_128
*934 TAP_129
*935 TAP_130
*936 TAP_131
*937 TAP_132
*938 TAP_133
*939 TAP_134
*940 TAP_135
*941 TAP_136
*942 TAP_137
*943 TAP_138
*944 TAP_139
*945 TAP_140
*946 TAP_141
*947 TAP_142
*948 TAP_143
*949 TAP_144
*950 TAP_145
*951 TAP_146
*952 TAP_147
*953 TAP_148
*954 TAP_149
*955 TAP_150
*956 TAP_151
*957 TAP_152
*958 TAP_153
*959 TAP_154
*960 TAP_155
*961 TAP_156
*962 TAP_157
*963 TAP_158
*964 TAP_159
*965 TAP_160
*966 TAP_62
*967 TAP_63
*968 TAP_64
*969 TAP_65
*970 TAP_66
*971 TAP_67
*972 TAP_68
*973 TAP_69
*974 TAP_70
*975 TAP_71
*976 TAP_72
*977 TAP_73
*978 TAP_74
*979 TAP_75
*980 TAP_76
*981 TAP_77
*982 TAP_78
*983 TAP_79
*984 TAP_80
*985 TAP_81
*986 TAP_82
*987 TAP_83
*988 TAP_84
*989 TAP_85
*990 TAP_86
*991 TAP_87
*992 TAP_88
*993 TAP_89
*994 TAP_90
*995 TAP_91
*996 TAP_92
*997 TAP_93
*998 TAP_94
*999 TAP_95
*1000 TAP_96
*1001 TAP_97
*1002 TAP_98
*1003 TAP_99
*1004 _222_
*1005 _223_
*1006 _224_
*1007 _225_
*1008 _226_
*1009 _227_
*1010 _228_
*1011 _229_
*1012 _230_
*1013 _231_
*1014 _232_
*1015 _233_
*1016 _234_
*1017 _235_
*1018 _236_
*1019 _237_
*1020 _238_
*1021 _239_
*1022 _240_
*1023 _241_
*1024 _242_
*1025 _243_
*1026 _244_
*1027 _245_
*1028 _246_
*1029 _247_
*1030 _248_
*1031 _249_
*1032 _250_
*1033 _251_
*1034 _252_
*1035 _253_
*1036 _254_
*1037 _255_
*1038 _256_
*1039 _257_
*1040 _258_
*1041 _259_
*1042 _260_
*1043 _261_
*1044 _262_
*1045 _263_
*1046 _264_
*1047 _265_
*1048 _266_
*1049 _267_
*1050 _268_
*1051 _269_
*1052 _270_
*1053 _271_
*1054 _272_
*1055 _273_
*1056 _274_
*1057 _275_
*1058 _276_
*1059 _277_
*1060 _278_
*1061 _279_
*1062 _280_
*1063 _281_
*1064 _282_
*1065 _283_
*1066 _284_
*1067 _285_
*1068 _286_
*1069 _287_
*1070 _288_
*1071 _289_
*1072 _290_
*1073 _291_
*1074 _292_
*1075 _293_
*1076 _294_
*1077 _295_
*1078 _296_
*1079 _297_
*1080 _298_
*1081 _299_
*1082 _300_
*1083 _301_
*1084 _302_
*1085 _303_
*1086 _304_
*1087 _305_
*1088 _306_
*1089 _307_
*1090 _308_
*1091 _309_
*1092 _310_
*1093 _311_
*1094 _312_
*1095 _313_
*1096 _314_
*1097 _315_
*1098 _316_
*1099 _317_
*1100 _318_
*1101 _319_
*1102 _320_
*1103 _321_
*1104 _322_
*1105 _323_
*1106 _324_
*1107 _325_
*1108 _326_
*1109 _327_
*1110 _328_
*1111 _329_
*1112 _330_
*1113 _331_
*1114 _332_
*1115 _333_
*1116 _334_
*1117 _335_
*1118 _336_
*1119 _337_
*1120 _338_
*1121 _339_
*1122 _340_
*1123 _341_
*1124 _342_
*1125 _343_
*1126 _344_
*1127 _345_
*1128 _346_
*1129 _347_
*1130 _348_
*1131 _349_
*1132 _350_
*1133 _351_
*1134 _352_
*1135 _353_
*1136 _354_
*1137 _355_
*1138 _356_
*1139 _357_
*1140 _358_
*1141 _359_
*1142 _360_
*1143 _361_
*1144 _362_
*1145 _363_
*1146 _364_
*1147 _365_
*1148 _366_
*1149 _367_
*1150 _368_
*1151 _369_
*1152 _370_
*1153 _371_
*1154 _372_
*1155 _373_
*1156 _374_
*1157 _375_
*1158 _376_
*1159 _377_
*1160 _378_
*1161 _379_
*1162 _380_
*1163 _381_
*1164 _382_
*1165 _383_
*1166 _384_
*1167 _385_
*1168 _386_
*1169 _387_
*1170 _388_
*1171 _389_
*1172 _390_
*1173 _391_
*1174 _392_
*1175 _393_
*1176 _394_
*1177 _395_
*1178 _396_
*1179 _397_
*1180 _398_
*1181 _399_
*1182 _400_
*1183 _401_
*1184 _402_
*1185 _403_
*1186 _404_
*1187 _405_
*1188 _406_
*1189 _407_
*1190 _408_
*1191 _409_
*1192 _410_
*1193 _411_
*1194 _412_
*1195 _413_
*1196 _414_
*1197 _415_
*1198 _416_
*1199 _417_
*1200 _418_
*1201 _419_
*1202 _420_
*1203 _421_
*1204 _422_
*1205 _423_
*1206 _424_
*1207 _425_
*1208 _426_
*1209 _427_
*1210 _428_
*1211 _429_
*1212 _430_
*1213 _431_
*1214 _432_
*1215 _433_
*1216 _434_
*1217 _435_
*1218 _436_
*1219 _437_
*1220 _438__1
*1221 _439_
*1222 _440__2
*1223 _441_
*1224 _442_
*1225 _443_
*1226 _444_
*1227 _445_
*1228 _446__3
*1229 _447__4
*1230 _448__5
*1231 _449__6
*1232 _450__7
*1233 _451__8
*1234 _452__9
*1235 _453__10
*1236 _454_
*1237 _455_
*1238 _456_
*1239 _457_
*1240 _458_
*1241 _459_
*1242 _460_
*1243 _461_
*1244 _462_
*1245 _463_
*1246 _464_
*1247 _465_
*1248 _466_
*1249 _467_
*1250 _468_
*1251 _469_
*1252 _470_
*1253 _471_
*1254 _472_
*1255 _473_
*1256 _474_
*1257 _475_
*1258 _476_
*1259 _477_
*1260 _478_
*1261 _479_
*1262 _480_
*1263 _481_
*1264 _482_
*1265 _483_
*1266 _484_
*1267 _485_
*1268 _486_
*1269 _487_
*1270 _488_
*1271 _489_
*1272 _490_
*1273 _491_
*1274 _492_
*1275 _493_
*1276 _494_
*1277 _495_
*1278 _496_
*1279 _497_
*1280 _498_
*1281 _499_
*1282 clkbuf_0_SCK
*1283 clkbuf_0__221_
*1284 clkbuf_1_0__f__221_
*1285 clkbuf_1_1__f__221_
*1286 clkbuf_2_0__f_SCK
*1287 clkbuf_2_1__f_SCK
*1288 clkbuf_2_2__f_SCK
*1289 clkbuf_2_3__f_SCK
*1290 hold1
*1291 hold10
*1292 hold11
*1293 hold12
*1294 hold13
*1295 hold14
*1296 hold15
*1297 hold16
*1298 hold17
*1299 hold18
*1300 hold19
*1301 hold2
*1302 hold20
*1303 hold21
*1304 hold22
*1305 hold23
*1306 hold24
*1307 hold3
*1308 hold4
*1309 hold5
*1310 hold6
*1311 hold7
*1312 hold8
*1313 hold9
*1314 input1
*1315 input10
*1316 input11
*1317 input2
*1318 input3
*1319 input4
*1320 input5
*1321 input6
*1322 input7
*1323 input8
*1324 input9
*1325 max_cap38
*1326 output12
*1327 output13
*1328 output14
*1329 output15
*1330 output16
*1331 output17
*1332 output18
*1333 output19
*1334 output20
*1335 output21
*1336 output22
*1337 output23
*1338 output24
*1339 output25
*1340 output26
*1341 output27
*1342 output28
*1343 output29
*1344 output30
*1345 output31
*1346 output32
*1347 output33
*1348 output34
*1349 output35
*1350 output36
*1351 output37

*PORTS
CSB I
SCK I
SDI I
SDO O
idata[0] I
idata[1] I
idata[2] I
idata[3] I
idata[4] I
idata[5] I
idata[6] I
idata[7] I
oaddr[0] O
oaddr[1] O
oaddr[2] O
oaddr[3] O
oaddr[4] O
oaddr[5] O
oaddr[6] O
oaddr[7] O
odata[0] O
odata[1] O
odata[2] O
odata[3] O
odata[4] O
odata[5] O
odata[6] O
odata[7] O
pass_thru_mgmt O
pass_thru_mgmt_delay O
pass_thru_mgmt_reset O
pass_thru_user O
pass_thru_user_delay O
pass_thru_user_reset O
rdstb O
reset I
sdoenb O
wrstb O

*D_NET *1 0.000835178
*CONN
*P CSB I
*I *1314:A I *D sky130_fd_sc_hd__clkbuf_1
*CAP
1 CSB 0.000417589
2 *1314:A 0.000417589
3 *1314:A *305:28 0
*RES
1 CSB *1314:A 21.8357 
*END

*D_NET *2 0.00901003
*CONN
*P SCK I
*I *1282:A I *D sky130_fd_sc_hd__clkbuf_16
*CAP
1 SCK 0.00445891
2 *1282:A 0.00445891
3 *1282:A *1148:A 0
4 *1282:A *1160:A2 9.22164e-05
5 *1282:A *355:25 0
*RES
1 SCK *1282:A 37.5185 
*END

*D_NET *3 0.000487379
*CONN
*P SDI I
*I *1317:A I *D sky130_fd_sc_hd__buf_2
*CAP
1 SDI 0.00024369
2 *1317:A 0.00024369
*RES
1 SDI *1317:A 19.9411 
*END

*D_NET *4 0.00105574
*CONN
*P SDO O
*I *1326:X O *D sky130_fd_sc_hd__clkbuf_4
*CAP
1 SDO 0.00047739
2 *1326:X 0.00047739
3 SDO *136:103 0.00010096
*RES
1 *1326:X SDO 22.8536 
*END

*D_NET *7 0.00101641
*CONN
*P idata[0] I
*I *1318:A I *D sky130_fd_sc_hd__clkbuf_1
*CAP
1 idata[0] 0.000477814
2 *1318:A 0.000477814
3 *1318:A *283:8 2.89114e-05
4 *1318:A *326:12 3.18676e-05
*RES
1 idata[0] *1318:A 23.3536 
*END

*D_NET *8 0.00119506
*CONN
*P idata[1] I
*I *1319:A I *D sky130_fd_sc_hd__clkbuf_1
*CAP
1 idata[1] 0.000511881
2 *1319:A 0.000511881
3 *1319:A *1011:A0 0.000142856
4 *1319:A *1041:B2 2.84398e-05
5 *1319:A *136:103 0
*RES
1 idata[1] *1319:A 24.175 
*END

*D_NET *9 0.00116395
*CONN
*P idata[2] I
*I *1320:A I *D sky130_fd_sc_hd__clkbuf_1
*CAP
1 idata[2] 0.000554358
2 *1320:A 0.000554358
3 *1320:A sdoenb 0
4 *1320:A *1350:A 5.52302e-05
*RES
1 idata[2] *1320:A 24.7107 
*END

*D_NET *10 0.00175286
*CONN
*P idata[3] I
*I *1321:A I *D sky130_fd_sc_hd__clkbuf_1
*CAP
1 idata[3] 0.000847856
2 *1321:A 0.000847856
3 *1321:A *1066:A1 5.71472e-05
*RES
1 idata[3] *1321:A 29.9071 
*END

*D_NET *11 0.000813598
*CONN
*P idata[4] I
*I *1322:A I *D sky130_fd_sc_hd__clkbuf_1
*CAP
1 idata[4] 0.000406799
2 *1322:A 0.000406799
3 *1322:A oaddr[2] 0
4 *1322:A *288:18 0
*RES
1 idata[4] *1322:A 21.9607 
*END

*D_NET *12 0.000591129
*CONN
*P idata[5] I
*I *1323:A I *D sky130_fd_sc_hd__buf_1
*CAP
1 idata[5] 0.000295565
2 *1323:A 0.000295565
*RES
1 idata[5] *1323:A 21.1554 
*END

*D_NET *13 0.000956663
*CONN
*P idata[6] I
*I *1324:A I *D sky130_fd_sc_hd__clkbuf_1
*CAP
1 idata[6] 0.000465497
2 *1324:A 0.000465497
3 *1324:A *1016:A0 2.56694e-05
4 *1324:A *1338:A 0
*RES
1 idata[6] *1324:A 20.605 
*END

*D_NET *14 0.00106043
*CONN
*P idata[7] I
*I *1315:A I *D sky130_fd_sc_hd__clkbuf_1
*CAP
1 idata[7] 0.000474028
2 *1315:A 0.000474028
3 *1315:A *1350:A 5.52302e-05
4 *1315:A *326:12 5.71472e-05
*RES
1 idata[7] *1315:A 23.3536 
*END

*D_NET *15 0.00106442
*CONN
*P oaddr[0] O
*I *1327:X O *D sky130_fd_sc_hd__clkbuf_4
*CAP
1 oaddr[0] 0.000499358
2 *1327:X 0.000499358
3 oaddr[0] *1327:A 6.57026e-05
*RES
1 *1327:X oaddr[0] 19.5071 
*END

*D_NET *16 0.000477126
*CONN
*P oaddr[1] O
*I *1328:X O *D sky130_fd_sc_hd__clkbuf_4
*CAP
1 oaddr[1] 0.000238563
2 *1328:X 0.000238563
3 oaddr[1] *243:16 0
*RES
1 *1328:X oaddr[1] 18.4264 
*END

*D_NET *17 0.000922636
*CONN
*P oaddr[2] O
*I *1329:X O *D sky130_fd_sc_hd__clkbuf_4
*CAP
1 oaddr[2] 0.000461318
2 *1329:X 0.000461318
3 *1322:A oaddr[2] 0
*RES
1 *1329:X oaddr[2] 21.9819 
*END

*D_NET *18 0.000850774
*CONN
*P oaddr[3] O
*I *1330:X O *D sky130_fd_sc_hd__clkbuf_4
*CAP
1 oaddr[3] 0.000425387
2 *1330:X 0.000425387
3 oaddr[3] *288:10 0
4 oaddr[3] *288:18 0
*RES
1 *1330:X oaddr[3] 21.6382 
*END

*D_NET *19 0.00119457
*CONN
*P oaddr[4] O
*I *1331:X O *D sky130_fd_sc_hd__buf_2
*CAP
1 oaddr[4] 0.000586715
2 *1331:X 0.000586715
3 oaddr[4] *1338:A 2.11419e-05
4 oaddr[4] *132:93 0
*RES
1 *1331:X oaddr[4] 18.7715 
*END

*D_NET *20 0.0024057
*CONN
*P oaddr[5] O
*I *1332:X O *D sky130_fd_sc_hd__clkbuf_4
*CAP
1 oaddr[5] 0.00109634
2 *1332:X 0.00109634
3 oaddr[5] *1332:A 2.44318e-05
4 oaddr[5] *1340:A 0.000188586
*RES
1 *1332:X oaddr[5] 33.175 
*END

*D_NET *21 0.00188051
*CONN
*P oaddr[6] O
*I *1333:X O *D sky130_fd_sc_hd__clkbuf_4
*CAP
1 oaddr[6] 0.000940255
2 *1333:X 0.000940255
*RES
1 *1333:X oaddr[6] 31.0321 
*END

*D_NET *22 0.000907892
*CONN
*P oaddr[7] O
*I *1334:X O *D sky130_fd_sc_hd__clkbuf_4
*CAP
1 oaddr[7] 0.000453946
2 *1334:X 0.000453946
3 oaddr[7] *1332:A 0
*RES
1 *1334:X oaddr[7] 19.7045 
*END

*D_NET *23 0.000754184
*CONN
*P odata[0] O
*I *1335:X O *D sky130_fd_sc_hd__clkbuf_4
*CAP
1 odata[0] 0.000377092
2 *1335:X 0.000377092
*RES
1 *1335:X odata[0] 21.3536 
*END

*D_NET *24 0.000788409
*CONN
*P odata[1] O
*I *1336:X O *D sky130_fd_sc_hd__clkbuf_4
*CAP
1 odata[1] 0.000381055
2 *1336:X 0.000381055
3 odata[1] *288:18 2.62984e-05
*RES
1 *1336:X odata[1] 19.0342 
*END

*D_NET *25 0.00129472
*CONN
*P odata[2] O
*I *1337:X O *D sky130_fd_sc_hd__clkbuf_4
*CAP
1 odata[2] 0.000505458
2 *1337:X 0.000505458
3 odata[2] *1064:A0 0.000142856
4 odata[2] *1064:A1 3.48705e-05
5 odata[2] *1064:S 5.62995e-05
6 odata[2] *1261:D 4.9773e-05
*RES
1 *1337:X odata[2] 24.4071 
*END

*D_NET *26 0.000929533
*CONN
*P odata[3] O
*I *1338:X O *D sky130_fd_sc_hd__clkbuf_4
*CAP
1 odata[3] 0.00046351
2 *1338:X 0.00046351
3 odata[3] *1326:A 2.51343e-06
*RES
1 *1338:X odata[3] 22.4429 
*END

*D_NET *27 0.000862607
*CONN
*P odata[4] O
*I *1339:X O *D sky130_fd_sc_hd__buf_2
*CAP
1 odata[4] 0.000431303
2 *1339:X 0.000431303
3 odata[4] *288:18 0
*RES
1 *1339:X odata[4] 21.1209 
*END

*D_NET *28 0.000704672
*CONN
*P odata[5] O
*I *1340:X O *D sky130_fd_sc_hd__clkbuf_4
*CAP
1 odata[5] 0.000352336
2 *1340:X 0.000352336
*RES
1 *1340:X odata[5] 20.6929 
*END

*D_NET *29 0.00204306
*CONN
*P odata[6] O
*I *1341:X O *D sky130_fd_sc_hd__clkbuf_4
*CAP
1 odata[6] 0.000829655
2 *1341:X 0.000829655
3 odata[6] *1060:A0 1.32552e-05
4 odata[6] *1060:A1 0.000185643
5 odata[6] *1062:S 0
6 odata[6] *1063:A 8.15939e-05
7 odata[6] *265:37 0.00010326
*RES
1 *1341:X odata[6] 29.2643 
*END

*D_NET *30 0.000654824
*CONN
*P odata[7] O
*I *1342:X O *D sky130_fd_sc_hd__clkbuf_4
*CAP
1 odata[7] 0.000327412
2 *1342:X 0.000327412
3 odata[7] *1334:A 0
*RES
1 *1342:X odata[7] 21.4589 
*END

*D_NET *31 0.000728379
*CONN
*P pass_thru_mgmt O
*I *1343:X O *D sky130_fd_sc_hd__buf_2
*CAP
1 pass_thru_mgmt 0.000352841
2 *1343:X 0.000352841
3 pass_thru_mgmt *288:18 2.26973e-05
*RES
1 *1343:X pass_thru_mgmt 18.267 
*END

*D_NET *32 0.000700258
*CONN
*P pass_thru_mgmt_delay O
*I *1344:X O *D sky130_fd_sc_hd__clkbuf_4
*CAP
1 pass_thru_mgmt_delay 0.000350129
2 *1344:X 0.000350129
*RES
1 *1344:X pass_thru_mgmt_delay 20.6929 
*END

*D_NET *33 0.000867782
*CONN
*P pass_thru_mgmt_reset O
*I *1345:X O *D sky130_fd_sc_hd__clkbuf_4
*CAP
1 pass_thru_mgmt_reset 0.000433891
2 *1345:X 0.000433891
3 pass_thru_mgmt_reset pass_thru_user 0
*RES
1 *1345:X pass_thru_mgmt_reset 19.3378 
*END

*D_NET *34 0.00222594
*CONN
*P pass_thru_user O
*I *1346:X O *D sky130_fd_sc_hd__clkbuf_4
*CAP
1 pass_thru_user 0.00111297
2 *1346:X 0.00111297
3 pass_thru_mgmt_reset pass_thru_user 0
*RES
1 *1346:X pass_thru_user 33.8357 
*END

*D_NET *35 0.00101089
*CONN
*P pass_thru_user_delay O
*I *1347:X O *D sky130_fd_sc_hd__clkbuf_4
*CAP
1 pass_thru_user_delay 0.000476869
2 *1347:X 0.000476869
3 pass_thru_user_delay *283:8 5.71472e-05
*RES
1 *1347:X pass_thru_user_delay 22.9786 
*END

*D_NET *36 0.00154213
*CONN
*P pass_thru_user_reset O
*I *1348:X O *D sky130_fd_sc_hd__clkbuf_4
*CAP
1 pass_thru_user_reset 0.000611052
2 *1348:X 0.000611052
3 pass_thru_user_reset *283:8 0.000320024
*RES
1 *1348:X pass_thru_user_reset 24.9071 
*END

*D_NET *37 0.000700258
*CONN
*P rdstb O
*I *1349:X O *D sky130_fd_sc_hd__clkbuf_4
*CAP
1 rdstb 0.000350129
2 *1349:X 0.000350129
*RES
1 *1349:X rdstb 20.6929 
*END

*D_NET *38 0.000487415
*CONN
*P reset I
*I *1316:A I *D sky130_fd_sc_hd__clkbuf_1
*CAP
1 reset 0.000243708
2 *1316:A 0.000243708
*RES
1 reset *1316:A 19.9411 
*END

*D_NET *39 0.00100697
*CONN
*P sdoenb O
*I *1350:X O *D sky130_fd_sc_hd__buf_6
*CAP
1 sdoenb 0.000503484
2 *1350:X 0.000503484
3 *1320:A sdoenb 0
*RES
1 *1350:X sdoenb 21.1092 
*END

*D_NET *40 0.000807768
*CONN
*P wrstb O
*I *1351:X O *D sky130_fd_sc_hd__buf_2
*CAP
1 wrstb 0.000370067
2 *1351:X 0.000370067
3 wrstb *288:18 6.76337e-05
*RES
1 *1351:X wrstb 18.8741 
*END

*D_NET *41 0.00103989
*CONN
*I *1265:D I *D sky130_fd_sc_hd__dfstp_1
*I *1167:X O *D sky130_fd_sc_hd__o21a_1
*CAP
1 *1265:D 0.000368823
2 *1167:X 0.000368823
3 *1265:D *1035:B 0
4 *1265:D *1167:A1 6.91214e-05
5 *1265:D *1167:B1 0
6 *1265:D *132:128 5.5782e-05
7 *1265:D *134:25 0
8 *1265:D *134:35 5.33334e-05
9 *1265:D *264:12 0.00012401
*RES
1 *1167:X *1265:D 34.3857 
*END

*D_NET *42 0.00257679
*CONN
*I *1268:D I *D sky130_fd_sc_hd__dfstp_2
*I *1165:X O *D sky130_fd_sc_hd__a2bb2o_1
*CAP
1 *1268:D 0.000921354
2 *1165:X 0.000921354
3 *1268:D *1059:A 5.52302e-05
4 *1268:D *1059:B 7.60306e-05
5 *1268:D *1111:B1 2.84026e-05
6 *1268:D *1165:A2_N 3.69047e-06
7 *1268:D *1196:A 5.71472e-05
8 *1268:D *250:75 0.000223053
9 *1268:D *293:46 0.000150625
10 *1268:D *357:6 0.0001399
*RES
1 *1165:X *1268:D 44.5821 
*END

*D_NET *43 0.00127338
*CONN
*I *1312:A I *D sky130_fd_sc_hd__dlygate4sd3_1
*I *1159:X O *D sky130_fd_sc_hd__a41o_1
*CAP
1 *1312:A 0.00030314
2 *1159:X 0.00030314
3 *1312:A *1159:B1 0
4 *1312:A *1269:RESET_B 0.000205236
5 *1312:A *240:12 0.00014183
6 *1312:A *355:48 0.000320031
*RES
1 *1159:X *1312:A 34.3857 
*END

*D_NET *44 0.000457256
*CONN
*I *1270:D I *D sky130_fd_sc_hd__dfrtp_4
*I *1164:X O *D sky130_fd_sc_hd__a22o_1
*CAP
1 *1270:D 0.000150878
2 *1164:X 0.000150878
3 *1270:D *1164:B1 0.0001399
4 *1270:D *247:22 1.56e-05
*RES
1 *1164:X *1270:D 20.7964 
*END

*D_NET *45 0.000687204
*CONN
*I *1271:D I *D sky130_fd_sc_hd__dfrtp_1
*I *1161:Y O *D sky130_fd_sc_hd__inv_2
*CAP
1 *1271:D 0.000278668
2 *1161:Y 0.000278668
3 *1271:D *201:14 0
4 *1271:D *293:46 0.000129868
*RES
1 *1161:Y *1271:D 32.6536 
*END

*D_NET *46 0.000734008
*CONN
*I *1292:A I *D sky130_fd_sc_hd__dlygate4sd3_1
*I *1158:X O *D sky130_fd_sc_hd__a31o_1
*CAP
1 *1292:A 0.000103407
2 *1158:X 0.000103407
3 *1292:A *1020:A0 0.000306317
4 *1292:A *1158:A3 1.97695e-05
5 *1292:A *1158:B1 0.000106943
6 *1292:A *1272:D 9.41642e-05
*RES
1 *1158:X *1292:A 22.0286 
*END

*D_NET *47 0.000340369
*CONN
*I *1236:RESET_B I *D sky130_fd_sc_hd__dfrtp_1
*I *1186:Y O *D sky130_fd_sc_hd__nor2_1
*CAP
1 *1236:RESET_B 6.00339e-05
2 *1186:Y 6.00339e-05
3 *1236:RESET_B *1284:A 6.48957e-05
4 *1236:RESET_B *193:50 2.72449e-05
5 *1236:RESET_B *268:14 0.000128161
*RES
1 *1186:Y *1236:RESET_B 20.55 
*END

*D_NET *48 0.00110145
*CONN
*I *1237:RESET_B I *D sky130_fd_sc_hd__dfrtp_1
*I *1187:Y O *D sky130_fd_sc_hd__nor2_1
*CAP
1 *1237:RESET_B 0.000371797
2 *1187:Y 0.000371797
3 *1237:RESET_B *1189:A 0
4 *1237:RESET_B *244:8 0.000357856
*RES
1 *1187:Y *1237:RESET_B 23.9607 
*END

*D_NET *49 0.000597941
*CONN
*I *1238:RESET_B I *D sky130_fd_sc_hd__dfrtp_1
*I *1188:Y O *D sky130_fd_sc_hd__nor2_1
*CAP
1 *1238:RESET_B 0.000191395
2 *1188:Y 0.000191395
3 *1238:RESET_B *246:24 9.25014e-06
4 *1238:RESET_B *247:22 1.34631e-05
5 *1238:RESET_B *247:26 7.20217e-06
6 *1238:RESET_B *268:16 8.79458e-05
7 *1238:RESET_B *305:16 5.41794e-05
8 *1238:RESET_B *359:91 4.31097e-05
*RES
1 *1188:Y *1238:RESET_B 21.6661 
*END

*D_NET *50 0.00105083
*CONN
*I *1239:RESET_B I *D sky130_fd_sc_hd__dfrtp_1
*I *1189:Y O *D sky130_fd_sc_hd__nor2_1
*CAP
1 *1239:RESET_B 0.000411256
2 *1189:Y 0.000411256
3 *1239:RESET_B *1189:A 0
4 *1239:RESET_B *134:60 3.85567e-05
5 *1239:RESET_B *242:10 9.18999e-05
6 *1239:RESET_B *277:24 9.78579e-05
*RES
1 *1189:Y *1239:RESET_B 24.175 
*END

*D_NET *51 0.000341967
*CONN
*I *1240:RESET_B I *D sky130_fd_sc_hd__dfrtp_1
*I *1190:Y O *D sky130_fd_sc_hd__nor2_1
*CAP
1 *1240:RESET_B 0.000137552
2 *1190:Y 0.000137552
3 *1240:RESET_B *1183:A 5.48488e-05
4 *1240:RESET_B *308:8 1.20135e-05
5 *1240:RESET_B *311:12 0
*RES
1 *1190:Y *1240:RESET_B 21.0232 
*END

*D_NET *52 0.00124331
*CONN
*I *1241:RESET_B I *D sky130_fd_sc_hd__dfrtp_4
*I *1191:Y O *D sky130_fd_sc_hd__nor2_1
*CAP
1 *1241:RESET_B 0.00034519
2 *1191:Y 0.00034519
3 *1241:RESET_B *1241:CLK 0.000263442
4 *1241:RESET_B *253:10 1.69961e-05
5 *1241:RESET_B *253:58 0.000272496
*RES
1 *1191:Y *1241:RESET_B 16.8982 
*END

*D_NET *53 0.000447518
*CONN
*I *1242:RESET_B I *D sky130_fd_sc_hd__dfrtp_4
*I *1192:Y O *D sky130_fd_sc_hd__nor2_1
*CAP
1 *1242:RESET_B 0.000172737
2 *1192:Y 0.000172737
3 *1242:RESET_B *254:12 4.57445e-05
4 *1242:RESET_B *267:79 5.62995e-05
*RES
1 *1192:Y *1242:RESET_B 21.4964 
*END

*D_NET *54 0.000393452
*CONN
*I *1243:RESET_B I *D sky130_fd_sc_hd__dfrtp_4
*I *1193:Y O *D sky130_fd_sc_hd__nor2_1
*CAP
1 *1243:RESET_B 0.000146246
2 *1193:Y 0.000146246
3 *1243:RESET_B *255:16 0.00010096
*RES
1 *1193:Y *1243:RESET_B 20.5857 
*END

*D_NET *55 0.000308616
*CONN
*I *1244:RESET_B I *D sky130_fd_sc_hd__dfrtp_2
*I *1194:Y O *D sky130_fd_sc_hd__nor2_1
*CAP
1 *1244:RESET_B 7.81416e-05
2 *1194:Y 7.81416e-05
3 *1244:RESET_B *1149:S 0
4 *1244:RESET_B *1190:B 0.000152333
*RES
1 *1194:Y *1244:RESET_B 20.2464 
*END

*D_NET *56 0.000634763
*CONN
*I *1245:RESET_B I *D sky130_fd_sc_hd__dfrtp_4
*I *1195:Y O *D sky130_fd_sc_hd__nor2_1
*CAP
1 *1245:RESET_B 0.00011872
2 *1195:Y 0.00011872
3 *1245:RESET_B *192:48 9.60875e-05
4 *1245:RESET_B *203:18 0.000150618
5 *1245:RESET_B *247:64 0.000150618
*RES
1 *1195:Y *1245:RESET_B 21.1929 
*END

*D_NET *57 0.000347478
*CONN
*I *1246:RESET_B I *D sky130_fd_sc_hd__dfrtp_2
*I *1198:Y O *D sky130_fd_sc_hd__nor2_1
*CAP
1 *1246:RESET_B 0.000157805
2 *1198:Y 0.000157805
3 *1246:RESET_B *1198:B 3.18676e-05
4 *1246:RESET_B *186:40 0
*RES
1 *1198:Y *1246:RESET_B 21.0143 
*END

*D_NET *58 0.000689588
*CONN
*I *1247:RESET_B I *D sky130_fd_sc_hd__dfrtp_1
*I *1199:Y O *D sky130_fd_sc_hd__nor2_1
*CAP
1 *1247:RESET_B 0.000241466
2 *1199:Y 0.000241466
3 *1247:RESET_B *1109:S 8.06331e-05
4 *1247:RESET_B *131:14 0.000126024
*RES
1 *1199:Y *1247:RESET_B 22.425 
*END

*D_NET *59 0.000340107
*CONN
*I *1248:RESET_B I *D sky130_fd_sc_hd__dfrtp_1
*I *1200:Y O *D sky130_fd_sc_hd__nor2_1
*CAP
1 *1248:RESET_B 0.000110727
2 *1200:Y 0.000110727
3 *1248:RESET_B *265:73 0.000118654
*RES
1 *1200:Y *1248:RESET_B 11.4161 
*END

*D_NET *60 0.000462135
*CONN
*I *1249:RESET_B I *D sky130_fd_sc_hd__dfrtp_1
*I *1201:Y O *D sky130_fd_sc_hd__nor2_1
*CAP
1 *1249:RESET_B 9.94891e-05
2 *1201:Y 9.94891e-05
3 *1249:RESET_B *1201:B 2.27416e-05
4 *1249:RESET_B *248:73 6.48957e-05
5 *1249:RESET_B *270:12 0.000175519
*RES
1 *1201:Y *1249:RESET_B 21.0857 
*END

*D_NET *61 0.000624203
*CONN
*I *1250:RESET_B I *D sky130_fd_sc_hd__dfrtp_4
*I *1202:Y O *D sky130_fd_sc_hd__nor2_1
*CAP
1 *1250:RESET_B 0.000230794
2 *1202:Y 0.000230794
3 *1250:RESET_B *1349:A 0
4 *1250:RESET_B *249:89 1.24368e-05
5 *1250:RESET_B *249:100 6.87574e-05
6 *1250:RESET_B *249:111 1.56e-05
7 *1250:RESET_B *271:10 6.58195e-05
*RES
1 *1202:Y *1250:RESET_B 22.3179 
*END

*D_NET *62 0.000331563
*CONN
*I *1251:RESET_B I *D sky130_fd_sc_hd__dfrtp_4
*I *1203:Y O *D sky130_fd_sc_hd__nor2_1
*CAP
1 *1251:RESET_B 0.000131021
2 *1203:Y 0.000131021
3 *1251:RESET_B *1349:A 6.95205e-05
4 *1251:RESET_B *271:10 0
*RES
1 *1203:Y *1251:RESET_B 20.8536 
*END

*D_NET *63 0.000283517
*CONN
*I *1252:RESET_B I *D sky130_fd_sc_hd__dfrtp_1
*I *1204:Y O *D sky130_fd_sc_hd__nor2_1
*CAP
1 *1252:RESET_B 0.000115766
2 *1204:Y 0.000115766
3 *1252:RESET_B *1205:B 5.1985e-05
4 *1252:RESET_B *251:80 0
*RES
1 *1204:Y *1252:RESET_B 20.55 
*END

*D_NET *64 0.000261885
*CONN
*I *1253:RESET_B I *D sky130_fd_sc_hd__dfrtp_1
*I *1205:Y O *D sky130_fd_sc_hd__nor2_1
*CAP
1 *1253:RESET_B 0.000130943
2 *1205:Y 0.000130943
3 *1253:RESET_B *154:14 0
*RES
1 *1205:Y *1253:RESET_B 20.55 
*END

*D_NET *65 0.000254997
*CONN
*I *1254:RESET_B I *D sky130_fd_sc_hd__dfrtp_1
*I *1206:Y O *D sky130_fd_sc_hd__nor2_1
*CAP
1 *1254:RESET_B 0.000127499
2 *1206:Y 0.000127499
3 *1254:RESET_B *1256:D 0
4 *1254:RESET_B *251:55 0
5 *1254:RESET_B *265:22 0
*RES
1 *1206:Y *1254:RESET_B 20.55 
*END

*D_NET *66 0.000466482
*CONN
*I *1255:RESET_B I *D sky130_fd_sc_hd__dfrtp_2
*I *1207:Y O *D sky130_fd_sc_hd__nor2_1
*CAP
1 *1255:RESET_B 0.000152244
2 *1207:Y 0.000152244
3 *1255:RESET_B *248:20 0.000161993
4 *1255:RESET_B *249:33 0
*RES
1 *1207:Y *1255:RESET_B 22.0679 
*END

*D_NET *67 0.000579862
*CONN
*I *1256:RESET_B I *D sky130_fd_sc_hd__dfrtp_1
*I *1210:Y O *D sky130_fd_sc_hd__nor2_1
*CAP
1 *1256:RESET_B 0.000217544
2 *1210:Y 0.000217544
3 *1256:RESET_B *300:16 0.000144773
*RES
1 *1210:Y *1256:RESET_B 21.9071 
*END

*D_NET *68 0.000635968
*CONN
*I *1257:RESET_B I *D sky130_fd_sc_hd__dfrtp_1
*I *1211:Y O *D sky130_fd_sc_hd__nor2_1
*CAP
1 *1257:RESET_B 0.000191345
2 *1211:Y 0.000191345
3 *1257:RESET_B *250:146 0.000253277
*RES
1 *1211:Y *1257:RESET_B 21.9071 
*END

*D_NET *69 0.00035198
*CONN
*I *1258:RESET_B I *D sky130_fd_sc_hd__dfrtp_1
*I *1212:Y O *D sky130_fd_sc_hd__nor2_1
*CAP
1 *1258:RESET_B 8.73733e-05
2 *1212:Y 8.73733e-05
3 *1258:RESET_B *250:103 0.000177234
4 *1258:RESET_B *266:120 0
*RES
1 *1212:Y *1258:RESET_B 20.55 
*END

*D_NET *70 0.00068184
*CONN
*I *1259:RESET_B I *D sky130_fd_sc_hd__dfrtp_1
*I *1213:Y O *D sky130_fd_sc_hd__nor2_1
*CAP
1 *1259:RESET_B 0.000114078
2 *1213:Y 0.000114078
3 *1259:RESET_B *1213:B 4.27935e-05
4 *1259:RESET_B *1214:B 0.000177934
5 *1259:RESET_B *251:114 5.33005e-05
6 *1259:RESET_B *348:14 0.000179656
*RES
1 *1213:Y *1259:RESET_B 21.4964 
*END

*D_NET *71 0.000361536
*CONN
*I *1260:RESET_B I *D sky130_fd_sc_hd__dfrtp_1
*I *1214:Y O *D sky130_fd_sc_hd__nor2_1
*CAP
1 *1260:RESET_B 0.000102741
2 *1214:Y 0.000102741
3 *1260:RESET_B *1066:A1 5.52238e-05
4 *1260:RESET_B *1214:A 0.000100831
5 *1260:RESET_B *313:41 0
*RES
1 *1214:Y *1260:RESET_B 20.175 
*END

*D_NET *72 0.000275492
*CONN
*I *1261:RESET_B I *D sky130_fd_sc_hd__dfrtp_1
*I *1215:Y O *D sky130_fd_sc_hd__nor2_1
*CAP
1 *1261:RESET_B 0.000128101
2 *1215:Y 0.000128101
3 *1261:RESET_B *1215:A 1.92905e-05
*RES
1 *1215:Y *1261:RESET_B 20.175 
*END

*D_NET *73 0.00134354
*CONN
*I *1262:RESET_B I *D sky130_fd_sc_hd__dfrtp_1
*I *1216:Y O *D sky130_fd_sc_hd__nor2_1
*CAP
1 *1262:RESET_B 0.000288603
2 *1216:Y 0.000288603
3 *1262:RESET_B *1305:A 1.41029e-05
4 *1262:RESET_B *1335:A 8.00806e-05
5 *1262:RESET_B *250:36 0.000176226
6 *1262:RESET_B *265:26 0.000220655
7 *1262:RESET_B *300:16 0.000229456
8 *1262:RESET_B *301:23 4.58096e-05
*RES
1 *1216:Y *1262:RESET_B 24.8446 
*END

*D_NET *74 0.0010476
*CONN
*I *1263:RESET_B I *D sky130_fd_sc_hd__dfrtp_1
*I *1217:Y O *D sky130_fd_sc_hd__nor2_1
*CAP
1 *1263:RESET_B 0.000321801
2 *1217:Y 0.000321801
3 *1263:RESET_B *1300:A 0.000315165
4 *1263:RESET_B *250:18 5.49544e-05
5 *1263:RESET_B *250:36 3.38774e-05
*RES
1 *1217:Y *1263:RESET_B 15.1304 
*END

*D_NET *75 0.000507698
*CONN
*I *1264:RESET_B I *D sky130_fd_sc_hd__dfrtp_4
*I *1218:Y O *D sky130_fd_sc_hd__nor2_1
*CAP
1 *1264:RESET_B 0.000140556
2 *1218:Y 0.000140556
3 *1264:RESET_B *187:14 6.26466e-05
4 *1264:RESET_B *250:99 9.90431e-05
5 *1264:RESET_B *305:28 6.48957e-05
*RES
1 *1218:Y *1264:RESET_B 21.4964 
*END

*D_NET *76 0.000394304
*CONN
*I *1265:SET_B I *D sky130_fd_sc_hd__dfstp_1
*I *1053:Y O *D sky130_fd_sc_hd__nor2_1
*CAP
1 *1265:SET_B 0.000135669
2 *1053:Y 0.000135669
3 *1265:SET_B *1035:A 6.58195e-05
4 *1265:SET_B *242:10 5.71472e-05
5 *1265:SET_B *355:48 0
*RES
1 *1053:Y *1265:SET_B 21.0857 
*END

*D_NET *77 0.00158296
*CONN
*I *1266:RESET_B I *D sky130_fd_sc_hd__dfrtp_1
*I *1221:Y O *D sky130_fd_sc_hd__nor2_1
*CAP
1 *1266:RESET_B 0.000292877
2 *1221:Y 0.000292877
3 *1266:RESET_B *1057:B1 0.000192488
4 *1266:RESET_B *1160:A2 0.000414748
5 *1266:RESET_B *1165:A1_N 0
6 *1266:RESET_B *1165:B1 2.65699e-06
7 *1266:RESET_B *1165:B2 0.000127439
8 *1266:RESET_B *1299:A 0.000150611
9 *1266:RESET_B *154:24 4.70821e-05
10 *1266:RESET_B *193:14 2.29097e-05
11 *1266:RESET_B *250:91 3.92757e-05
*RES
1 *1221:Y *1266:RESET_B 27.3982 
*END

*D_NET *78 0.000525136
*CONN
*I *1267:RESET_B I *D sky130_fd_sc_hd__dfrtp_1
*I *1042:Y O *D sky130_fd_sc_hd__nor2_1
*CAP
1 *1267:RESET_B 0.000191556
2 *1042:Y 0.000191556
3 *1267:RESET_B *1233:A 0.000142023
4 *1267:RESET_B *1267:D 0
*RES
1 *1042:Y *1267:RESET_B 22.9786 
*END

*D_NET *79 0.000291542
*CONN
*I *1268:SET_B I *D sky130_fd_sc_hd__dfstp_2
*I *1223:Y O *D sky130_fd_sc_hd__nor2_1
*CAP
1 *1268:SET_B 9.83984e-05
2 *1223:Y 9.83984e-05
3 *1268:SET_B *1208:A 0
4 *1268:SET_B *131:16 0
5 *1268:SET_B *133:34 9.47456e-05
*RES
1 *1223:Y *1268:SET_B 20.55 
*END

*D_NET *80 0.000655823
*CONN
*I *1269:RESET_B I *D sky130_fd_sc_hd__dfrtp_1
*I *1224:Y O *D sky130_fd_sc_hd__nor2_1
*CAP
1 *1269:RESET_B 0.000209861
2 *1224:Y 0.000209861
3 *1269:RESET_B *1224:A 0
4 *1269:RESET_B *1224:B 3.08664e-05
5 *1269:RESET_B *134:14 0
6 *1312:A *1269:RESET_B 0.000205236
*RES
1 *1224:Y *1269:RESET_B 22.2464 
*END

*D_NET *81 0.000573422
*CONN
*I *1270:RESET_B I *D sky130_fd_sc_hd__dfrtp_4
*I *1225:Y O *D sky130_fd_sc_hd__nor2_1
*CAP
1 *1270:RESET_B 9.91652e-05
2 *1225:Y 9.91652e-05
3 *1270:RESET_B *1057:B1 0.00017309
4 *1270:RESET_B *131:110 2.89114e-05
5 *1270:RESET_B *355:25 0.00017309
*RES
1 *1225:Y *1270:RESET_B 21.0857 
*END

*D_NET *82 0.000357612
*CONN
*I *1271:RESET_B I *D sky130_fd_sc_hd__dfrtp_1
*I *1226:Y O *D sky130_fd_sc_hd__nor2_1
*CAP
1 *1271:RESET_B 9.28947e-05
2 *1226:Y 9.28947e-05
3 *1271:RESET_B *131:76 3.79467e-05
4 *1271:RESET_B *133:66 0.000104974
5 *1271:RESET_B *186:22 2.89016e-05
*RES
1 *1226:Y *1271:RESET_B 20.6036 
*END

*D_NET *83 0.00173224
*CONN
*I *1272:RESET_B I *D sky130_fd_sc_hd__dfrtp_1
*I *1227:Y O *D sky130_fd_sc_hd__nor2_1
*CAP
1 *1272:RESET_B 0.000259276
2 *1227:Y 0.000259276
3 *1272:RESET_B *1167:A1 0.000522052
4 *1272:RESET_B *1272:CLK 5.83233e-05
5 *1272:RESET_B *131:127 0.000105689
6 *1272:RESET_B *132:128 0.000253738
7 *1272:RESET_B *241:22 0.00018077
8 *1272:RESET_B *358:25 9.3111e-05
*RES
1 *1227:Y *1272:RESET_B 27.7821 
*END

*D_NET *84 0.000414507
*CONN
*I *1273:RESET_B I *D sky130_fd_sc_hd__dfrtp_1
*I *1039:Y O *D sky130_fd_sc_hd__nor2_1
*CAP
1 *1273:RESET_B 0.000175597
2 *1039:Y 0.000175597
3 *1273:RESET_B *1013:S 0
4 *1273:RESET_B *1036:A1 1.25672e-06
5 *1273:RESET_B *1309:A 3.92757e-05
6 *1273:RESET_B *136:97 0
7 *1273:RESET_B *275:6 2.27812e-05
*RES
1 *1039:Y *1273:RESET_B 21.4339 
*END

*D_NET *85 0.000162545
*CONN
*I *1274:RESET_B I *D sky130_fd_sc_hd__dfrtp_1
*I *1035:Y O *D sky130_fd_sc_hd__nor2_1
*CAP
1 *1274:RESET_B 8.12723e-05
2 *1035:Y 8.12723e-05
3 *1274:RESET_B *1229:A 0
*RES
1 *1035:Y *1274:RESET_B 19.6393 
*END

*D_NET *86 0.000318175
*CONN
*I *1275:RESET_B I *D sky130_fd_sc_hd__dfrtp_1
*I *1031:Y O *D sky130_fd_sc_hd__nor2_1
*CAP
1 *1275:RESET_B 0.000119093
2 *1031:Y 0.000119093
3 *1275:RESET_B *134:35 4.91215e-05
4 *1275:RESET_B *134:48 3.08664e-05
*RES
1 *1031:Y *1275:RESET_B 11.4161 
*END

*D_NET *87 0.00166215
*CONN
*I *1276:RESET_B I *D sky130_fd_sc_hd__dfrtp_1
*I *1027:Y O *D sky130_fd_sc_hd__nor2_1
*CAP
1 *1276:RESET_B 0.000674001
2 *1027:Y 0.000674001
3 *1276:RESET_B *1024:A1 0
4 *1276:RESET_B *1026:A 0
5 *1276:RESET_B *1045:A1 0
6 *1276:RESET_B *1231:A 0
7 *1276:RESET_B *1276:CLK 0
8 *1276:RESET_B *1277:CLK 2.00751e-05
9 *1276:RESET_B *1277:D 0
10 *1276:RESET_B *1296:A 0
11 *1276:RESET_B *132:31 0.000141734
12 *1276:RESET_B *138:32 0
13 *1276:RESET_B *277:24 0
14 *1276:RESET_B *312:10 0.00015234
*RES
1 *1027:Y *1276:RESET_B 30.7107 
*END

*D_NET *88 0.000833638
*CONN
*I *1277:RESET_B I *D sky130_fd_sc_hd__dfrtp_1
*I *1023:Y O *D sky130_fd_sc_hd__nor2_1
*CAP
1 *1277:RESET_B 0.000195336
2 *1023:Y 0.000195336
3 *1277:RESET_B *1019:B 1.39726e-05
4 *1277:RESET_B *1025:A1 0.000179656
5 *1277:RESET_B *1343:A 0.000103983
6 *1277:RESET_B *134:76 2.27416e-05
7 *1277:RESET_B *277:24 0.000122612
*RES
1 *1023:Y *1277:RESET_B 23.925 
*END

*D_NET *89 0.00082729
*CONN
*I *1278:RESET_B I *D sky130_fd_sc_hd__dfrtp_1
*I *1019:Y O *D sky130_fd_sc_hd__nor2_1
*CAP
1 *1278:RESET_B 0.000215166
2 *1019:Y 0.000215166
3 *1278:RESET_B *1172:A 4.52936e-05
4 *1278:RESET_B *1174:A 9.81253e-05
5 *1278:RESET_B *1338:A 2.28335e-05
6 *1278:RESET_B *136:89 0.00015234
7 *1278:RESET_B *280:10 7.83659e-05
*RES
1 *1019:Y *1278:RESET_B 23.2018 
*END

*D_NET *90 0.000362118
*CONN
*I *1279:RESET_B I *D sky130_fd_sc_hd__dfrtp_1
*I *1015:Y O *D sky130_fd_sc_hd__nor2_1
*CAP
1 *1279:RESET_B 9.36566e-05
2 *1015:Y 9.36566e-05
3 *1279:RESET_B *1181:A 0
4 *1279:RESET_B *136:97 0.000174805
*RES
1 *1015:Y *1279:RESET_B 20.55 
*END

*D_NET *91 0.000165591
*CONN
*I *1280:RESET_B I *D sky130_fd_sc_hd__dfrtp_1
*I *1008:Y O *D sky130_fd_sc_hd__nor2_1
*CAP
1 *1280:RESET_B 6.99653e-05
2 *1008:Y 6.99653e-05
3 *1280:RESET_B *1011:A1 0
4 *1280:RESET_B *1039:A 2.56601e-05
5 *1280:RESET_B *1338:A 0
*RES
1 *1008:Y *1280:RESET_B 19.6393 
*END

*D_NET *92 0.00101196
*CONN
*I *1236:D I *D sky130_fd_sc_hd__dfrtp_1
*I *1157:X O *D sky130_fd_sc_hd__a22o_1
*CAP
1 *1236:D 0.000432729
2 *1157:X 0.000432729
3 *1236:D *1045:C1 2.27416e-05
4 *1236:D *1157:A2 0
5 *1236:D *1284:A 6.24649e-05
6 *1236:D *154:20 6.12927e-05
7 *1236:D *193:50 0
*RES
1 *1157:X *1236:D 34.3679 
*END

*D_NET *93 0.000606728
*CONN
*I *1308:A I *D sky130_fd_sc_hd__dlygate4sd3_1
*I *1155:X O *D sky130_fd_sc_hd__a21o_1
*CAP
1 *1308:A 7.263e-05
2 *1155:X 7.263e-05
3 *1308:A *1155:B1 0.000312222
4 *1308:A *240:12 9.40156e-05
5 *1308:A *268:56 5.52302e-05
*RES
1 *1155:X *1308:A 21.6 
*END

*D_NET *94 0.00111762
*CONN
*I *1238:D I *D sky130_fd_sc_hd__dfrtp_1
*I *1154:X O *D sky130_fd_sc_hd__a31o_1
*CAP
1 *1238:D 0.000365413
2 *1154:X 0.000365413
3 *1238:D *1154:A2 4.88212e-05
4 *1238:D *1238:CLK 7.77652e-05
5 *1238:D *155:125 3.66196e-05
6 *1238:D *261:42 0.000223592
*RES
1 *1154:X *1238:D 34.4929 
*END

*D_NET *95 0.000799791
*CONN
*I *1301:A I *D sky130_fd_sc_hd__dlygate4sd3_1
*I *1152:X O *D sky130_fd_sc_hd__a31o_1
*CAP
1 *1301:A 0.000122617
2 *1152:X 0.000122617
3 *1301:A *1151:A 0.000139913
4 *1301:A *1152:A2 1.38323e-05
5 *1301:A *1152:A3 0.000184745
6 *1301:A *1152:B1 2.28598e-05
7 *1301:A *1166:A 0.000193207
*RES
1 *1152:X *1301:A 22.4571 
*END

*D_NET *96 0.00036299
*CONN
*I *1240:D I *D sky130_fd_sc_hd__dfrtp_1
*I *1150:X O *D sky130_fd_sc_hd__clkbuf_1
*CAP
1 *1240:D 0.000175179
2 *1150:X 0.000175179
3 *1240:D *1240:CLK 1.26316e-05
*RES
1 *1150:X *1240:D 20.7964 
*END

*D_NET *97 0.000323799
*CONN
*I *1241:D I *D sky130_fd_sc_hd__dfrtp_4
*I *1147:X O *D sky130_fd_sc_hd__clkbuf_1
*CAP
1 *1241:D 0.000107574
2 *1147:X 0.000107574
3 *1241:D *292:14 0.00010326
4 *1241:D *293:6 5.39166e-06
*RES
1 *1147:X *1241:D 29.475 
*END

*D_NET *98 0.000191685
*CONN
*I *1242:D I *D sky130_fd_sc_hd__dfrtp_4
*I *1143:X O *D sky130_fd_sc_hd__clkbuf_1
*CAP
1 *1242:D 7.18503e-05
2 *1143:X 7.18503e-05
3 *1242:D *1242:CLK 4.79842e-05
*RES
1 *1143:X *1242:D 29.2429 
*END

*D_NET *99 0.000342815
*CONN
*I *1243:D I *D sky130_fd_sc_hd__dfrtp_4
*I *1139:X O *D sky130_fd_sc_hd__clkbuf_1
*CAP
1 *1243:D 0.000120227
2 *1139:X 0.000120227
3 *1243:D *267:73 7.14951e-05
4 *1243:D *267:79 3.08664e-05
*RES
1 *1139:X *1243:D 20.7964 
*END

*D_NET *100 0.000576455
*CONN
*I *1244:D I *D sky130_fd_sc_hd__dfrtp_2
*I *1134:X O *D sky130_fd_sc_hd__clkbuf_1
*CAP
1 *1244:D 0.00020614
2 *1134:X 0.00020614
3 *1244:D *1149:S 5.33786e-05
4 *1244:D *267:56 9.25014e-06
5 *1244:D *267:69 0.000101545
*RES
1 *1134:X *1244:D 30.7071 
*END

*D_NET *101 0.000613415
*CONN
*I *1245:D I *D sky130_fd_sc_hd__dfrtp_4
*I *1129:X O *D sky130_fd_sc_hd__clkbuf_1
*CAP
1 *1245:D 0.000179446
2 *1129:X 0.000179446
3 *1245:D *1245:CLK 5.8753e-05
4 *1245:D *192:48 0.000139632
5 *1245:D *197:38 5.61376e-05
*RES
1 *1129:X *1245:D 31.2607 
*END

*D_NET *102 0.00030788
*CONN
*I *1246:D I *D sky130_fd_sc_hd__dfrtp_2
*I *1124:X O *D sky130_fd_sc_hd__clkbuf_1
*CAP
1 *1246:D 0.000139489
2 *1124:X 0.000139489
3 *1246:D *186:40 0
4 *1246:D *201:20 2.89016e-05
*RES
1 *1124:X *1246:D 29.7786 
*END

*D_NET *103 0.000215679
*CONN
*I *1247:D I *D sky130_fd_sc_hd__dfrtp_1
*I *1119:X O *D sky130_fd_sc_hd__clkbuf_1
*CAP
1 *1247:D 3.63789e-05
2 *1119:X 3.63789e-05
3 *1247:D *1112:S 0.000104974
4 *1247:D *243:16 3.79467e-05
*RES
1 *1119:X *1247:D 28.9393 
*END

*D_NET *104 0.000347114
*CONN
*I *1248:D I *D sky130_fd_sc_hd__dfrtp_1
*I *1113:X O *D sky130_fd_sc_hd__clkbuf_1
*CAP
1 *1248:D 9.74811e-05
2 *1113:X 9.74811e-05
3 *1248:D *1334:A 0.000104294
4 *1248:D *243:16 3.69697e-05
5 *1248:D *265:73 1.08881e-05
*RES
1 *1113:X *1248:D 29.3545 
*END

*D_NET *105 0.000258298
*CONN
*I *1249:D I *D sky130_fd_sc_hd__dfrtp_1
*I *1102:X O *D sky130_fd_sc_hd__xor2_1
*CAP
1 *1249:D 8.05858e-05
2 *1102:X 8.05858e-05
3 *1249:D *266:36 2.89016e-05
4 *1249:D *266:49 6.82252e-05
*RES
1 *1102:X *1249:D 20.3679 
*END

*D_NET *106 0.00211216
*CONN
*I *1250:D I *D sky130_fd_sc_hd__dfrtp_4
*I *1101:Y O *D sky130_fd_sc_hd__o21ai_1
*CAP
1 *1250:D 0.000586458
2 *1101:Y 0.000586458
3 *1250:D *1094:A2 0.000357054
4 *1250:D *1101:A2 7.43578e-06
5 *1250:D *1250:CLK 2.84109e-05
6 *1250:D *161:14 1.39726e-05
7 *1250:D *188:8 5.52302e-05
8 *1250:D *266:12 0
9 *1250:D *271:18 0.000357433
10 *1250:D *305:28 0.000119708
*RES
1 *1101:Y *1250:D 40.1357 
*END

*D_NET *107 0.00103547
*CONN
*I *1251:D I *D sky130_fd_sc_hd__dfrtp_4
*I *1097:Y O *D sky130_fd_sc_hd__xnor2_1
*CAP
1 *1251:D 0.000487731
2 *1097:Y 0.000487731
3 *1251:D *1097:B 3.41517e-06
4 *1251:D *1251:CLK 5.65955e-05
*RES
1 *1097:Y *1251:D 26.5464 
*END

*D_NET *108 0.000728738
*CONN
*I *1252:D I *D sky130_fd_sc_hd__dfrtp_1
*I *1091:Y O *D sky130_fd_sc_hd__o21ai_1
*CAP
1 *1252:D 0.00012312
2 *1091:Y 0.00012312
3 *1252:D *1072:A1 0.000314139
4 *1252:D *1252:CLK 0.000113005
5 *1252:D *250:99 5.53542e-05
*RES
1 *1091:Y *1252:D 22.4214 
*END

*D_NET *109 0.000340044
*CONN
*I *1253:D I *D sky130_fd_sc_hd__dfrtp_1
*I *1089:X O *D sky130_fd_sc_hd__clkbuf_1
*CAP
1 *1253:D 0.000122781
2 *1089:X 0.000122781
3 *1253:D *1089:A 3.92757e-05
4 *1253:D *154:14 2.79092e-05
5 *1253:D *356:10 2.72967e-05
*RES
1 *1089:X *1253:D 30.0107 
*END

*D_NET *110 0.000712148
*CONN
*I *1254:D I *D sky130_fd_sc_hd__dfrtp_1
*I *1086:Y O *D sky130_fd_sc_hd__o221ai_1
*CAP
1 *1254:D 0.000154698
2 *1086:Y 0.000154698
3 *1254:D *1076:A 0.000154762
4 *1254:D *1086:B2 0.000177948
5 *1254:D *1256:D 0
6 *1254:D *251:55 6.39901e-05
7 *1254:D *265:22 6.05161e-06
*RES
1 *1086:Y *1254:D 31.9036 
*END

*D_NET *111 0.000595899
*CONN
*I *1255:D I *D sky130_fd_sc_hd__dfrtp_2
*I *1083:Y O *D sky130_fd_sc_hd__xnor2_1
*CAP
1 *1255:D 0.000185744
2 *1083:Y 0.000185744
3 *1255:D *1342:A 4.87995e-05
4 *1255:D *248:20 4.57445e-05
5 *1255:D *265:54 0.000129868
*RES
1 *1083:Y *1255:D 31.0107 
*END

*D_NET *112 0.00158516
*CONN
*I *1256:D I *D sky130_fd_sc_hd__dfrtp_1
*I *1080:X O *D sky130_fd_sc_hd__o31a_1
*CAP
1 *1256:D 0.000672058
2 *1080:X 0.000672058
3 *1256:D *1076:A 0
4 *1256:D *1078:A2 0.000143341
5 *1256:D *1080:A2 9.77072e-05
6 *1256:D *175:10 0
7 *1254:D *1256:D 0
8 *1254:RESET_B *1256:D 0
*RES
1 *1080:X *1256:D 38.2429 
*END

*D_NET *113 0.000423831
*CONN
*I *1257:D I *D sky130_fd_sc_hd__dfrtp_1
*I *1073:X O *D sky130_fd_sc_hd__clkbuf_1
*CAP
1 *1257:D 0.000145209
2 *1073:X 0.000145209
3 *1257:D *1072:A0 7.6644e-05
4 *1257:D *250:133 2.78576e-05
5 *1257:D *296:8 2.89114e-05
*RES
1 *1073:X *1257:D 29.7652 
*END

*D_NET *114 0.000297397
*CONN
*I *1258:D I *D sky130_fd_sc_hd__dfrtp_1
*I *1071:X O *D sky130_fd_sc_hd__clkbuf_1
*CAP
1 *1258:D 0.000125826
2 *1071:X 0.000125826
3 *1258:D *1071:A 4.57445e-05
*RES
1 *1071:X *1258:D 29.7786 
*END

*D_NET *115 0.000537324
*CONN
*I *1259:D I *D sky130_fd_sc_hd__dfrtp_1
*I *1069:X O *D sky130_fd_sc_hd__clkbuf_1
*CAP
1 *1259:D 0.000204582
2 *1069:X 0.000204582
3 *1259:D *1214:A 0.000128161
4 *1259:D *313:41 0
*RES
1 *1069:X *1259:D 31.4214 
*END

*D_NET *116 0.000899541
*CONN
*I *1260:D I *D sky130_fd_sc_hd__dfrtp_1
*I *1067:X O *D sky130_fd_sc_hd__clkbuf_1
*CAP
1 *1260:D 0.000270063
2 *1067:X 0.000270063
3 *1260:D *1064:A1 2.58997e-05
4 *1260:D *1064:S 5.50313e-05
5 *1260:D *1067:A 8.00806e-05
6 *1260:D *1261:CLK 6.98596e-05
7 *1260:D *1337:A 0
8 *1260:D *299:12 0.000120082
9 *1260:D *313:41 8.46259e-06
*RES
1 *1067:X *1260:D 33.3857 
*END

*D_NET *117 0.00149871
*CONN
*I *1261:D I *D sky130_fd_sc_hd__dfrtp_1
*I *1065:X O *D sky130_fd_sc_hd__clkbuf_1
*CAP
1 *1261:D 0.000517048
2 *1065:X 0.000517048
3 *1261:D *1064:A0 2.54304e-06
4 *1261:D *1064:A1 0.000276211
5 *1261:D *1065:A 6.85998e-05
6 *1261:D *1337:A 6.74911e-05
7 odata[2] *1261:D 4.9773e-05
*RES
1 *1065:X *1261:D 35.5286 
*END

*D_NET *118 0.000275534
*CONN
*I *1262:D I *D sky130_fd_sc_hd__dfrtp_1
*I *1063:X O *D sky130_fd_sc_hd__clkbuf_1
*CAP
1 *1262:D 0.000108961
2 *1063:X 0.000108961
3 *1262:D *265:26 5.76121e-05
*RES
1 *1063:X *1262:D 20.7964 
*END

*D_NET *119 0.00029407
*CONN
*I *1263:D I *D sky130_fd_sc_hd__dfrtp_1
*I *1061:X O *D sky130_fd_sc_hd__clkbuf_1
*CAP
1 *1263:D 0.000136153
2 *1061:X 0.000136153
3 *1263:D *1061:A 2.17647e-05
4 *1263:D *243:16 0
*RES
1 *1061:X *1263:D 29.7786 
*END

*D_NET *120 0.000354723
*CONN
*I *1264:D I *D sky130_fd_sc_hd__dfrtp_4
*I *1058:X O *D sky130_fd_sc_hd__a41o_1
*CAP
1 *1264:D 9.32323e-05
2 *1058:X 9.32323e-05
3 *1264:D *1264:CLK 3.17211e-05
4 *1264:D *1266:CLK 3.5707e-05
5 *1264:D *156:93 0.000100831
*RES
1 *1058:X *1264:D 29.533 
*END

*D_NET *121 0.000460006
*CONN
*I *1266:D I *D sky130_fd_sc_hd__dfrtp_1
*I *1052:X O *D sky130_fd_sc_hd__a32o_1
*CAP
1 *1266:D 0.000161358
2 *1052:X 0.000161358
3 *1266:D *1052:A1 8.43535e-06
4 *1266:D *1052:A3 2.89016e-05
5 *1266:D *1266:CLK 3.93986e-05
6 *1266:D *155:104 3.25247e-05
7 *1266:D *155:125 2.19778e-05
8 *1266:D *293:118 6.05161e-06
9 *1266:D *305:16 0
*RES
1 *1052:X *1266:D 30.4929 
*END

*D_NET *122 0.000817754
*CONN
*I *1267:D I *D sky130_fd_sc_hd__dfrtp_1
*I *1045:X O *D sky130_fd_sc_hd__o211a_1
*CAP
1 *1267:D 0.000313612
2 *1045:X 0.000313612
3 *1267:D *1045:A1 8.07313e-05
4 *1267:D *1231:A 0
5 *1267:D *1233:A 0
6 *1267:D *263:32 0
7 *1267:D *359:91 0.0001098
8 *1267:RESET_B *1267:D 0
*RES
1 *1045:X *1267:D 33.1357 
*END

*D_NET *123 0.000727794
*CONN
*I *1273:D I *D sky130_fd_sc_hd__dfrtp_1
*I *1041:X O *D sky130_fd_sc_hd__a22o_1
*CAP
1 *1273:D 0.000212301
2 *1041:X 0.000212301
3 *1273:D *1036:A1 2.59355e-05
4 *1273:D *1228:A 0.00012401
5 *1273:D *138:53 1.33343e-05
6 *1273:D *138:55 0.000139913
*RES
1 *1041:X *1273:D 31.1357 
*END

*D_NET *124 0.000440274
*CONN
*I *1274:D I *D sky130_fd_sc_hd__dfrtp_1
*I *1038:X O *D sky130_fd_sc_hd__clkbuf_1
*CAP
1 *1274:D 0.000220137
2 *1038:X 0.000220137
3 *1274:D *1183:A 0
*RES
1 *1038:X *1274:D 30.725 
*END

*D_NET *125 0.000494671
*CONN
*I *1275:D I *D sky130_fd_sc_hd__dfrtp_1
*I *1034:X O *D sky130_fd_sc_hd__clkbuf_1
*CAP
1 *1275:D 0.000161951
2 *1034:X 0.000161951
3 *1275:D *1034:A 5.52302e-05
4 *1275:D *1167:B1 0
5 *1275:D *1219:A 0
6 *1275:D *1275:CLK 8.36723e-05
7 *1275:D *134:35 3.18676e-05
*RES
1 *1034:X *1275:D 30.6179 
*END

*D_NET *126 0.000652467
*CONN
*I *1276:D I *D sky130_fd_sc_hd__dfrtp_1
*I *1030:X O *D sky130_fd_sc_hd__clkbuf_1
*CAP
1 *1276:D 0.000284451
2 *1030:X 0.000284451
3 *1276:D *1012:A 0
4 *1276:D *1045:A2 0
5 *1276:D *138:20 8.35655e-05
*RES
1 *1030:X *1276:D 31.8321 
*END

*D_NET *127 0.000292265
*CONN
*I *1277:D I *D sky130_fd_sc_hd__dfrtp_1
*I *1026:X O *D sky130_fd_sc_hd__clkbuf_1
*CAP
1 *1277:D 0.000146133
2 *1026:X 0.000146133
3 *1277:D *1026:A 0
4 *1276:RESET_B *1277:D 0
*RES
1 *1026:X *1277:D 29.7786 
*END

*D_NET *128 0.000457532
*CONN
*I *1278:D I *D sky130_fd_sc_hd__dfrtp_1
*I *1022:X O *D sky130_fd_sc_hd__clkbuf_1
*CAP
1 *1278:D 0.000148135
2 *1022:X 0.000148135
3 *1278:D *1021:A1 3.81416e-06
4 *1278:D *1022:A 1.97595e-05
5 *1278:D *1174:A 0.000137689
6 *1278:D *1181:A 0
*RES
1 *1022:X *1278:D 30.1893 
*END

*D_NET *129 0.000564494
*CONN
*I *1279:D I *D sky130_fd_sc_hd__dfrtp_1
*I *1018:X O *D sky130_fd_sc_hd__clkbuf_1
*CAP
1 *1279:D 0.000167609
2 *1018:X 0.000167609
3 *1279:D *1015:B 4.58976e-05
4 *1279:D *1283:A 0
5 *1279:D *242:10 0.000183377
*RES
1 *1018:X *1279:D 30.6 
*END

*D_NET *130 0.000330402
*CONN
*I *1280:D I *D sky130_fd_sc_hd__dfrtp_1
*I *1014:X O *D sky130_fd_sc_hd__clkbuf_1
*CAP
1 *1280:D 9.02365e-05
2 *1014:X 9.02365e-05
3 *1280:D *1039:A 2.1768e-05
4 *1280:D *1181:A 0.000128161
5 *1280:D *136:97 0
*RES
1 *1014:X *1280:D 29.7786 
*END

*D_NET *131 0.0143434
*CONN
*I *1224:A I *D sky130_fd_sc_hd__nor2_1
*I *1227:A I *D sky130_fd_sc_hd__nor2_1
*I *1005:A I *D sky130_fd_sc_hd__clkbuf_4
*I *1225:A I *D sky130_fd_sc_hd__nor2_1
*I *1184:A I *D sky130_fd_sc_hd__clkbuf_4
*I *1226:A I *D sky130_fd_sc_hd__nor2_1
*I *1223:A I *D sky130_fd_sc_hd__nor2_1
*I *1208:A I *D sky130_fd_sc_hd__clkbuf_4
*I *1196:A I *D sky130_fd_sc_hd__clkbuf_4
*I *1004:X O *D sky130_fd_sc_hd__buf_2
*CAP
1 *1224:A 0.000352181
2 *1227:A 0
3 *1005:A 0
4 *1225:A 2.03441e-05
5 *1184:A 0.000135953
6 *1226:A 2.52056e-05
7 *1223:A 1.83384e-05
8 *1208:A 0.000131813
9 *1196:A 0.000310982
10 *1004:X 0.00085991
11 *131:127 0.000719818
12 *131:110 0.00113926
13 *131:91 0.00123766
14 *131:76 0.00103688
15 *131:61 0.000762112
16 *131:46 0.000435276
17 *131:16 0.000583037
18 *131:14 0.00113541
19 *1184:A *1099:A 5.33005e-05
20 *1184:A *201:14 9.69119e-06
21 *1184:A *203:20 2.59355e-05
22 *1184:A *246:24 3.07555e-05
23 *1184:A *247:10 0.000100831
24 *1184:A *247:64 4.56437e-05
25 *1184:A *293:46 0
26 *1196:A *1103:A 1.72894e-05
27 *1196:A *1268:CLK 5.52302e-05
28 *1208:A *1268:CLK 0
29 *1208:A *133:34 0
30 *1208:A *250:8 2.51343e-06
31 *1208:A *250:75 0.000103267
32 *1224:A *1152:A2 0
33 *1224:A *1224:B 0.000291719
34 *1224:A *132:128 0.000174812
35 *1225:A *133:75 5.7661e-06
36 *1226:A *186:22 5.52302e-05
37 *131:14 *1199:A 0.000358965
38 *131:14 *1199:B 3.23989e-05
39 *131:14 *133:34 0
40 *131:14 *186:10 6.05161e-06
41 *131:14 *248:116 0
42 *131:14 *360:10 0
43 *131:14 *360:18 0.000190917
44 *131:16 *133:34 0
45 *131:16 *248:116 0
46 *131:61 *1223:B 9.90367e-05
47 *131:61 *133:34 9.25014e-06
48 *131:61 *133:49 0.000164499
49 *131:61 *293:46 0
50 *131:61 *360:10 0.000134758
51 *131:76 *1120:A2 8.50152e-05
52 *131:76 *1121:A1 2.10446e-05
53 *131:76 *133:49 2.8266e-06
54 *131:76 *133:66 7.7322e-05
55 *131:76 *133:75 5.62995e-05
56 *131:76 *186:40 0
57 *131:76 *201:14 0.000397918
58 *131:76 *258:8 0
59 *131:76 *293:46 0
60 *131:76 *360:10 6.39901e-05
61 *131:91 *133:75 0.000546184
62 *131:91 *201:14 0.000140933
63 *131:110 *1238:CLK 0.000266611
64 *131:110 *1272:CLK 7.73758e-05
65 *131:110 *132:20 0
66 *131:110 *133:75 3.9846e-05
67 *131:110 *133:90 0.000157072
68 *131:110 *261:42 0
69 *131:127 *1224:B 5.80706e-06
70 *131:127 *1272:CLK 0.000117078
71 *131:127 *1272:D 0.000123288
72 *131:127 *132:10 7.6644e-05
73 *131:127 *132:128 0.000653538
74 *131:127 *133:101 0.000206858
75 *1247:RESET_B *131:14 0.000126024
76 *1268:D *1196:A 5.71472e-05
77 *1268:SET_B *1208:A 0
78 *1268:SET_B *131:16 0
79 *1269:RESET_B *1224:A 0
80 *1270:RESET_B *131:110 2.89114e-05
81 *1271:RESET_B *131:76 3.79467e-05
82 *1272:RESET_B *131:127 0.000105689
*RES
1 *1004:X *131:14 30.8893 
2 *131:14 *131:16 2.55357 
3 *131:16 *1196:A 19.1214 
4 *131:16 *1208:A 16.2821 
5 *131:14 *131:46 6.67857 
6 *131:46 *1223:A 9.72857 
7 *131:46 *131:61 12.0893 
8 *131:61 *1226:A 14.3357 
9 *131:61 *131:76 15.7321 
10 *131:76 *1184:A 21.3893 
11 *131:76 *131:91 9.98214 
12 *131:91 *1225:A 9.72857 
13 *131:91 *131:110 16.5893 
14 *131:110 *1005:A 13.8 
15 *131:110 *131:127 19.9107 
16 *131:127 *1227:A 13.8 
17 *131:127 *1224:A 21.1393 
*END

*D_NET *132 0.0184181
*CONN
*I *1035:A I *D sky130_fd_sc_hd__nor2_1
*I *1053:A I *D sky130_fd_sc_hd__nor2_1
*I *1023:A I *D sky130_fd_sc_hd__nor2_1
*I *1039:A I *D sky130_fd_sc_hd__nor2_1
*I *1008:A I *D sky130_fd_sc_hd__nor2_1
*I *1015:A I *D sky130_fd_sc_hd__nor2_1
*I *1031:A I *D sky130_fd_sc_hd__nor2_1
*I *1019:A I *D sky130_fd_sc_hd__nor2_1
*I *1027:A I *D sky130_fd_sc_hd__nor2_1
*I *1042:A I *D sky130_fd_sc_hd__nor2_1
*I *1005:X O *D sky130_fd_sc_hd__clkbuf_4
*CAP
1 *1035:A 0.000271185
2 *1053:A 5.98333e-05
3 *1023:A 4.45912e-05
4 *1039:A 0.000674094
5 *1008:A 3.75792e-05
6 *1015:A 2.16258e-05
7 *1031:A 0.000242597
8 *1019:A 0.000441728
9 *1027:A 0
10 *1042:A 2.03441e-05
11 *1005:X 0.000105868
12 *132:128 0.000899369
13 *132:93 0.0010295
14 *132:65 0.000433843
15 *132:59 0.000730282
16 *132:42 0.000932224
17 *132:38 0.000373167
18 *132:31 0.000358721
19 *132:20 0.00154587
20 *132:10 0.00192194
21 *1008:A *1008:B 9.90431e-05
22 *1015:A *1015:B 1.47953e-05
23 *1019:A *1019:B 6.6755e-05
24 *1019:A *1021:A1 2.59355e-05
25 *1023:A *134:76 9.60939e-05
26 *1031:A *1015:B 0.000304141
27 *1031:A *1033:A1 2.61637e-05
28 *1031:A *134:50 0.000112936
29 *1031:A *134:60 4.46186e-06
30 *1031:A *242:10 3.91935e-05
31 *1031:A *277:24 0.000704816
32 *1035:A *1035:B 0.000254906
33 *1035:A *134:25 6.42338e-05
34 *1039:A *1011:A1 0.000115474
35 *1039:A *1280:CLK 5.28427e-05
36 *1039:A *1338:A 0
37 *1039:A *138:53 4.05411e-05
38 *1042:A *134:60 5.7661e-06
39 *1053:A *134:14 5.52302e-05
40 *1053:A *134:25 0.00010096
41 *1053:A *242:10 0.000186662
42 *132:10 *133:101 2.79092e-05
43 *132:10 *359:81 9.80173e-05
44 *132:20 *1180:A 5.52302e-05
45 *132:20 *1272:CLK 6.09773e-05
46 *132:20 *134:60 0.000105163
47 *132:20 *244:8 0.000346
48 *132:20 *361:12 6.90118e-06
49 *132:31 *134:60 4.88637e-05
50 *132:31 *134:67 0.000488691
51 *132:31 *134:76 4.55108e-05
52 *132:38 *134:76 0.0002302
53 *132:42 *1181:A 0.000214831
54 *132:42 *277:24 0.000647432
55 *132:59 *1017:A0 0
56 *132:59 *1181:A 0.000198698
57 *132:59 *277:24 0.000431327
58 *132:65 *1015:B 2.84355e-05
59 *132:65 *277:24 0.000428629
60 *132:93 *1011:A1 0.000202842
61 *132:93 *1017:A0 0
62 *132:93 *1181:A 0.000136276
63 *132:93 *1338:A 0
64 *132:93 *281:10 0.000148903
65 *132:128 *1167:A1 0.00014384
66 *132:128 *1272:D 5.08577e-05
67 *132:128 *133:101 4.97121e-06
68 *132:128 *134:14 0
69 *132:128 *134:25 0.000101
70 *132:128 *242:10 0.000181803
71 oaddr[4] *132:93 0
72 *1224:A *132:128 0.000174812
73 *1265:D *132:128 5.5782e-05
74 *1265:SET_B *1035:A 6.58195e-05
75 *1272:RESET_B *132:128 0.000253738
76 *1276:RESET_B *132:31 0.000141734
77 *1280:D *1039:A 2.1768e-05
78 *1280:RESET_B *1039:A 2.56601e-05
79 *131:110 *132:20 0
80 *131:127 *132:10 7.6644e-05
81 *131:127 *132:128 0.000653538
*RES
1 *1005:X *132:10 15.7821 
2 *132:10 *132:20 23.375 
3 *132:20 *1042:A 9.72857 
4 *132:20 *132:31 6.71429 
5 *132:31 *1027:A 9.3 
6 *132:31 *132:38 2.17857 
7 *132:38 *132:42 12.8214 
8 *132:42 *1019:A 19.175 
9 *132:42 *132:59 7.16071 
10 *132:59 *132:65 9.16071 
11 *132:65 *1031:A 27.9964 
12 *132:65 *1015:A 9.88036 
13 *132:59 *132:93 7.71429 
14 *132:93 *1008:A 14.7464 
15 *132:93 *1039:A 22.8714 
16 *132:38 *1023:A 10.2464 
17 *132:10 *132:128 21.875 
18 *132:128 *1053:A 11.4964 
19 *132:128 *1035:A 25.7107 
*END

*D_NET *133 0.0158065
*CONN
*I *1197:A I *D sky130_fd_sc_hd__clkbuf_4
*I *1209:A I *D sky130_fd_sc_hd__clkbuf_4
*I *1224:B I *D sky130_fd_sc_hd__nor2_1
*I *1227:B I *D sky130_fd_sc_hd__nor2_1
*I *1007:A I *D sky130_fd_sc_hd__clkbuf_4
*I *1225:B I *D sky130_fd_sc_hd__nor2_1
*I *1185:A I *D sky130_fd_sc_hd__clkbuf_4
*I *1226:B I *D sky130_fd_sc_hd__nor2_1
*I *1223:B I *D sky130_fd_sc_hd__nor2_1
*I *1006:X O *D sky130_fd_sc_hd__buf_2
*CAP
1 *1197:A 0
2 *1209:A 0
3 *1224:B 0.000347357
4 *1227:B 0
5 *1007:A 0
6 *1225:B 0
7 *1185:A 0
8 *1226:B 0
9 *1223:B 3.64512e-05
10 *1006:X 0.000324897
11 *133:101 0.000717124
12 *133:90 0.00076184
13 *133:75 0.000913677
14 *133:66 0.0008594
15 *133:49 0.000618374
16 *133:34 0.00127817
17 *133:26 0.00155583
18 *133:14 0.000919594
19 *1224:B *134:14 0
20 *133:14 *1096:A 3.13687e-05
21 *133:14 *1097:A 2.79092e-05
22 *133:14 *1097:B 0.000183989
23 *133:14 *249:14 5.76121e-05
24 *133:14 *249:89 0.000155738
25 *133:14 *305:28 0
26 *133:26 *1206:A 0
27 *133:26 *248:20 7.12625e-05
28 *133:26 *248:35 3.18676e-05
29 *133:26 *249:14 0.000676471
30 *133:26 *249:33 0.00027032
31 *133:34 *1217:B 0.000150618
32 *133:34 *1281:A 0.000346742
33 *133:34 *165:28 0.000521376
34 *133:34 *248:20 0.000166416
35 *133:34 *249:33 0.000161937
36 *133:34 *250:18 0
37 *133:34 *250:36 3.67548e-05
38 *133:34 *250:75 0
39 *133:34 *251:55 0
40 *133:34 *293:46 0
41 *133:34 *301:23 9.25014e-06
42 *133:49 *293:46 0.00019549
43 *133:66 *293:46 0.00053625
44 *133:75 *192:16 0.000392848
45 *133:90 *1057:B1 0
46 *133:90 *247:22 0.000358132
47 *133:90 *359:81 0.000229456
48 *133:101 *1272:D 0.000218734
49 *133:101 *1288:A 1.94945e-05
50 *133:101 *134:14 0
51 *133:101 *247:22 8.46829e-05
52 *133:101 *261:42 0.000517007
53 *133:101 *359:81 9.60875e-05
54 *1208:A *133:34 0
55 *1224:A *1224:B 0.000291719
56 *1225:A *133:75 5.7661e-06
57 *1268:SET_B *133:34 9.47456e-05
58 *1269:RESET_B *1224:B 3.08664e-05
59 *1271:RESET_B *133:66 0.000104974
60 *131:14 *133:34 0
61 *131:16 *133:34 0
62 *131:61 *1223:B 9.90367e-05
63 *131:61 *133:34 9.25014e-06
64 *131:61 *133:49 0.000164499
65 *131:76 *133:49 2.8266e-06
66 *131:76 *133:66 7.7322e-05
67 *131:76 *133:75 5.62995e-05
68 *131:91 *133:75 0.000546184
69 *131:110 *133:75 3.9846e-05
70 *131:110 *133:90 0.000157072
71 *131:127 *1224:B 5.80706e-06
72 *131:127 *133:101 0.000206858
73 *132:10 *133:101 2.79092e-05
74 *132:128 *133:101 4.97121e-06
*RES
1 *1006:X *133:14 25.6393 
2 *133:14 *133:26 21.3036 
3 *133:26 *133:34 34.2857 
4 *133:34 *1223:B 10.2464 
5 *133:34 *133:49 11.375 
6 *133:49 *1226:B 13.8 
7 *133:49 *133:66 13.3214 
8 *133:66 *1185:A 9.3 
9 *133:66 *133:75 12.0536 
10 *133:75 *1225:B 9.3 
11 *133:75 *133:90 17.8571 
12 *133:90 *1007:A 9.3 
13 *133:90 *133:101 15.2857 
14 *133:101 *1227:B 13.8 
15 *133:101 *1224:B 21.1393 
16 *133:26 *1209:A 9.3 
17 *133:14 *1197:A 9.3 
*END

*D_NET *134 0.0176002
*CONN
*I *1035:B I *D sky130_fd_sc_hd__nor2_1
*I *1039:B I *D sky130_fd_sc_hd__nor2_1
*I *1008:B I *D sky130_fd_sc_hd__nor2_1
*I *1015:B I *D sky130_fd_sc_hd__nor2_1
*I *1019:B I *D sky130_fd_sc_hd__nor2_1
*I *1023:B I *D sky130_fd_sc_hd__nor2_1
*I *1027:B I *D sky130_fd_sc_hd__nor2_1
*I *1042:B I *D sky130_fd_sc_hd__nor2_1
*I *1031:B I *D sky130_fd_sc_hd__nor2_1
*I *1053:B I *D sky130_fd_sc_hd__nor2_1
*I *1007:X O *D sky130_fd_sc_hd__clkbuf_4
*CAP
1 *1035:B 0.000222969
2 *1039:B 0.000238302
3 *1008:B 0.000825902
4 *1015:B 0.000267687
5 *1019:B 0.000424141
6 *1023:B 2.23854e-05
7 *1027:B 0
8 *1042:B 0
9 *1031:B 1.67135e-05
10 *1053:B 0
11 *1007:X 0.000933612
12 *134:119 0.00130572
13 *134:76 0.000603049
14 *134:67 0.000243133
15 *134:60 0.00092831
16 *134:50 0.00121544
17 *134:48 0.000471736
18 *134:35 0.00141827
19 *134:25 0.00166141
20 *134:14 0.00109466
21 *1015:B *242:10 0.000358977
22 *1019:B *1338:A 0.000550286
23 *1019:B *277:24 0
24 *1019:B *303:31 8.86911e-05
25 *1035:B *1229:A 0
26 *1035:B *264:12 0
27 *1039:B *1228:A 0
28 *1039:B *138:49 0
29 *1039:B *138:53 0.000126639
30 *134:14 *1159:A3 0.000123288
31 *134:14 *1288:A 3.43988e-06
32 *134:14 *155:125 0.000248378
33 *134:14 *261:42 0.00016555
34 *134:14 *355:48 0
35 *134:14 *359:81 0.00014285
36 *134:35 *1275:CLK 3.81893e-05
37 *134:48 *1279:CLK 0
38 *134:50 *1283:A 0.000116427
39 *134:60 *1233:A 0
40 *134:60 *1239:D 0
41 *134:60 *1283:A 0.000286706
42 *134:60 *1307:A 0
43 *134:60 *138:32 0
44 *134:60 *138:47 0
45 *134:60 *244:8 0.000274294
46 *134:67 *244:8 0.000251204
47 *134:76 *244:8 0.000187465
48 *134:76 *303:31 0.00010096
49 *134:119 *1033:A1 6.00916e-05
50 *134:119 *1228:A 0
51 *134:119 *1283:A 6.97972e-05
52 *134:119 *138:49 0
53 *134:119 *242:10 0
54 *1008:A *1008:B 9.90431e-05
55 *1015:A *1015:B 1.47953e-05
56 *1019:A *1019:B 6.6755e-05
57 *1023:A *134:76 9.60939e-05
58 *1031:A *1015:B 0.000304141
59 *1031:A *134:50 0.000112936
60 *1031:A *134:60 4.46186e-06
61 *1035:A *1035:B 0.000254906
62 *1035:A *134:25 6.42338e-05
63 *1042:A *134:60 5.7661e-06
64 *1053:A *134:14 5.52302e-05
65 *1053:A *134:25 0.00010096
66 *1224:B *134:14 0
67 *1239:RESET_B *134:60 3.85567e-05
68 *1265:D *1035:B 0
69 *1265:D *134:25 0
70 *1265:D *134:35 5.33334e-05
71 *1269:RESET_B *134:14 0
72 *1275:D *134:35 3.18676e-05
73 *1275:RESET_B *134:35 4.91215e-05
74 *1275:RESET_B *134:48 3.08664e-05
75 *1277:RESET_B *1019:B 1.39726e-05
76 *1277:RESET_B *134:76 2.27416e-05
77 *1279:D *1015:B 4.58976e-05
78 *132:20 *134:60 0.000105163
79 *132:31 *134:60 4.88637e-05
80 *132:31 *134:67 0.000488691
81 *132:31 *134:76 4.55108e-05
82 *132:38 *134:76 0.0002302
83 *132:65 *1015:B 2.84355e-05
84 *132:128 *134:14 0
85 *132:128 *134:25 0.000101
86 *133:101 *134:14 0
*RES
1 *1007:X *134:14 36.4071 
2 *134:14 *1053:B 9.3 
3 *134:14 *134:25 8.21429 
4 *134:25 *134:35 20.3929 
5 *134:35 *1031:B 9.72857 
6 *134:35 *134:48 6.69643 
7 *134:48 *134:50 2.85714 
8 *134:50 *134:60 22.6429 
9 *134:60 *1042:B 9.3 
10 *134:60 *134:67 4.64286 
11 *134:67 *1027:B 9.3 
12 *134:67 *134:76 5.07143 
13 *134:76 *1023:B 9.72857 
14 *134:76 *1019:B 28.1393 
15 *134:50 *1015:B 21.8 
16 *134:48 *134:119 4.98214 
17 *134:119 *1008:B 25.8714 
18 *134:119 *1039:B 18.2286 
19 *134:25 *1035:B 19.6929 
*END

*D_NET *135 0.00340844
*CONN
*I *1010:A I *D sky130_fd_sc_hd__clkbuf_4
*I *1075:A2 I *D sky130_fd_sc_hd__a32o_1
*I *1009:X O *D sky130_fd_sc_hd__or3_1
*CAP
1 *1010:A 0.00010081
2 *1075:A2 0.000707426
3 *1009:X 3.68863e-05
4 *135:6 0.000845122
5 *1010:A *1091:A2 9.25014e-06
6 *1010:A *266:53 3.92854e-05
7 *1075:A2 *1047:A 3.18676e-05
8 *1075:A2 *1055:A 9.80173e-05
9 *1075:A2 *1075:A3 0.000488719
10 *1075:A2 *1075:B1 2.57162e-05
11 *1075:A2 *1081:B 9.31595e-05
12 *1075:A2 *156:14 5.52238e-05
13 *1075:A2 *157:50 0.000163455
14 *1075:A2 *162:18 0.00020561
15 *1075:A2 *313:6 3.48705e-05
16 *1075:A2 *313:19 0.000448594
17 *135:6 *1047:A 2.44318e-05
*RES
1 *1009:X *135:6 9.83571 
2 *135:6 *1075:A2 26.8179 
3 *135:6 *1010:A 20.0679 
*END

*D_NET *136 0.0211611
*CONN
*I *1016:S I *D sky130_fd_sc_hd__mux2_1
*I *1011:S I *D sky130_fd_sc_hd__mux2_1
*I *1040:B I *D sky130_fd_sc_hd__nor2_1
*I *1032:S I *D sky130_fd_sc_hd__mux2_1
*I *1036:S I *D sky130_fd_sc_hd__mux2_1
*I *1020:S I *D sky130_fd_sc_hd__mux2_1
*I *1028:S I *D sky130_fd_sc_hd__mux2_1
*I *1024:S I *D sky130_fd_sc_hd__mux2_1
*I *1090:A2 I *D sky130_fd_sc_hd__o21ai_1
*I *1091:A1 I *D sky130_fd_sc_hd__o21ai_1
*I *1010:X O *D sky130_fd_sc_hd__clkbuf_4
*CAP
1 *1016:S 2.23854e-05
2 *1011:S 0.000107399
3 *1040:B 1.40355e-05
4 *1032:S 0.000560379
5 *1036:S 9.86672e-05
6 *1020:S 0.00029911
7 *1028:S 8.16938e-05
8 *1024:S 2.68435e-05
9 *1090:A2 0
10 *1091:A1 2.40756e-05
11 *1010:X 0.000109625
12 *136:120 0.000677556
13 *136:103 0.000808128
14 *136:97 0.00212442
15 *136:89 0.00188944
16 *136:74 0.00104198
17 *136:55 0.000672668
18 *136:42 0.00178308
19 *136:29 0.00179612
20 *136:10 0.000478045
21 *1011:S *1011:A0 9.17149e-05
22 *1011:S *1326:A 3.18747e-05
23 *1020:S *1020:A1 0.000369867
24 *1020:S *303:31 0.000229116
25 *1024:S *1030:A 5.71472e-05
26 *1024:S *138:20 9.90367e-05
27 *1028:S *1028:A1 1.24368e-05
28 *1032:S *1032:A0 9.99853e-05
29 *1032:S *1041:A1 0.00014285
30 *1032:S *1041:B1 9.25014e-06
31 *1032:S *1041:B2 0
32 *1032:S *1228:A 2.16719e-05
33 *1032:S *1294:A 7.86973e-05
34 *1032:S *138:59 0.000119763
35 *1032:S *276:8 2.61505e-05
36 *1036:S *1036:A0 1.72894e-05
37 *1036:S *1036:A1 0.00018051
38 *1036:S *1041:B2 0
39 *1036:S *1273:CLK 3.69047e-06
40 *1040:B *1041:A1 5.52302e-05
41 *1040:B *138:55 2.89114e-05
42 *1091:A1 *250:99 5.14195e-06
43 *1091:A1 *271:76 7.77116e-06
44 *136:10 *1091:A2 0.00014955
45 *136:10 *1349:A 8.97552e-05
46 *136:10 *271:72 8.44271e-06
47 *136:29 *1087:A 5.74562e-05
48 *136:29 *1090:A1 0.000396898
49 *136:29 *1091:B1 1.32552e-05
50 *136:29 *1349:A 9.56557e-05
51 *136:29 *271:72 1.36251e-05
52 *136:42 *1024:A1 0
53 *136:42 *1045:A2 0.000123673
54 *136:42 *1090:B1 0.0002144
55 *136:42 *1091:B1 8.81471e-06
56 *136:42 *1343:A 0
57 *136:42 *138:20 3.17148e-05
58 *136:42 *348:14 0.000272665
59 *136:55 *1025:A0 5.33334e-05
60 *136:55 *1343:A 6.7257e-05
61 *136:55 *138:20 4.08637e-05
62 *136:55 *298:40 0.000442078
63 *136:55 *337:12 0.00032246
64 *136:74 *1020:A1 0.000313479
65 *136:74 *1343:A 0.000200276
66 *136:74 *279:10 0.000151333
67 *136:74 *288:10 5.96101e-05
68 *136:74 *288:18 3.37718e-05
69 *136:74 *298:40 0.000728672
70 *136:89 *1016:A1 0.000172829
71 *136:89 *1020:A1 2.49484e-05
72 *136:89 *1330:A 8.00806e-05
73 *136:89 *1338:A 0
74 *136:89 *280:10 3.90513e-05
75 *136:89 *288:10 8.16036e-05
76 *136:97 *1011:A1 0
77 *136:97 *1013:A0 3.92854e-05
78 *136:97 *1013:S 0
79 *136:97 *1016:A0 1.32552e-05
80 *136:97 *1018:A 7.8327e-05
81 *136:97 *1181:A 0
82 *136:97 *1235:A 0.000319316
83 *136:97 *1346:A 0.000300635
84 *136:97 *138:47 0
85 *136:97 *138:49 0
86 *136:103 *1011:A0 0.00114609
87 *136:103 *1036:A0 2.56694e-05
88 *136:103 *1041:B2 0
89 *136:103 *1228:A 4.61027e-05
90 *136:103 *1273:CLK 8.00806e-05
91 *136:120 *1041:B2 0
92 *136:120 *1228:A 9.29571e-05
93 SDO *136:103 0.00010096
94 *1273:RESET_B *136:97 0
95 *1278:RESET_B *136:89 0.00015234
96 *1279:RESET_B *136:97 0.000174805
97 *1280:D *136:97 0
98 *1319:A *136:103 0
*RES
1 *1010:X *136:10 16.5857 
2 *136:10 *1091:A1 14.2598 
3 *136:10 *136:29 11.7143 
4 *136:29 *1090:A2 9.3 
5 *136:29 *136:42 29.1071 
6 *136:42 *1024:S 10.2464 
7 *136:42 *136:55 13.0893 
8 *136:55 *1028:S 15.1929 
9 *136:55 *136:74 12.0179 
10 *136:74 *1020:S 21.3179 
11 *136:74 *136:89 14.1607 
12 *136:89 *136:97 35.375 
13 *136:97 *136:103 18.6161 
14 *136:103 *1036:S 16.3982 
15 *136:103 *136:120 2.40179 
16 *136:120 *1032:S 23.3357 
17 *136:120 *1040:B 14.3357 
18 *136:97 *1011:S 11.4964 
19 *136:89 *1016:S 9.72857 
*END

*D_NET *137 0.000246922
*CONN
*I *1013:A0 I *D sky130_fd_sc_hd__mux2_1
*I *1011:X O *D sky130_fd_sc_hd__mux2_1
*CAP
1 *1013:A0 9.24478e-05
2 *1011:X 9.24478e-05
3 *1013:A0 *1013:A1 2.27416e-05
4 *136:97 *1013:A0 3.92854e-05
*RES
1 *1011:X *1013:A0 29.1714 
*END

*D_NET *138 0.0162086
*CONN
*I *1029:S I *D sky130_fd_sc_hd__mux2_1
*I *1025:S I *D sky130_fd_sc_hd__mux2_1
*I *1017:S I *D sky130_fd_sc_hd__mux2_1
*I *1013:S I *D sky130_fd_sc_hd__mux2_1
*I *1040:A I *D sky130_fd_sc_hd__nor2_1
*I *1041:A2 I *D sky130_fd_sc_hd__a22o_1
*I *1037:S I *D sky130_fd_sc_hd__mux2_1
*I *1033:S I *D sky130_fd_sc_hd__mux2_1
*I *1167:B1 I *D sky130_fd_sc_hd__o21a_1
*I *1021:S I *D sky130_fd_sc_hd__mux2_1
*I *1012:Y O *D sky130_fd_sc_hd__nand2_4
*CAP
1 *1029:S 3.41803e-05
2 *1025:S 5.02534e-05
3 *1017:S 0.000447879
4 *1013:S 0.000111473
5 *1040:A 1.91209e-05
6 *1041:A2 3.82418e-05
7 *1037:S 8.66486e-05
8 *1033:S 0.000155056
9 *1167:B1 0.000533827
10 *1021:S 6.68331e-05
11 *1012:Y 0.000734393
12 *138:63 0.000914166
13 *138:59 0.000534593
14 *138:55 0.00034081
15 *138:53 0.000526982
16 *138:49 0.00091078
17 *138:47 0.00140947
18 *138:32 0.00167738
19 *138:26 0.00117513
20 *138:20 0.000873138
21 *1013:S *1309:A 0
22 *1017:S *1017:A1 1.92905e-05
23 *1017:S *1018:A 0.000297331
24 *1017:S *281:10 1.92789e-05
25 *1021:S *241:22 4.57099e-05
26 *1025:S *1351:A 4.27438e-05
27 *1029:S *1029:A1 6.05161e-06
28 *1033:S *1033:A1 0.000177168
29 *1033:S *264:29 1.59373e-05
30 *1037:S *1041:B2 0
31 *1037:S *1294:A 7.48356e-05
32 *1167:B1 *1033:A0 0.000101545
33 *1167:B1 *1167:A1 0.000143652
34 *1167:B1 *1219:A 0
35 *1167:B1 *1229:A 0
36 *1167:B1 *1265:CLK 0
37 *1167:B1 *1275:CLK 0
38 *1167:B1 *1285:A 3.29279e-05
39 *1167:B1 *264:12 0
40 *138:20 *1012:A 6.20656e-05
41 *138:20 *1024:A1 0.000228558
42 *138:20 *1025:A0 6.74911e-05
43 *138:20 *1029:A1 7.02611e-05
44 *138:20 *1030:A 0.000215969
45 *138:20 *1343:A 0
46 *138:26 *1025:A0 0.000363252
47 *138:26 *1343:A 0.000365689
48 *138:32 *1021:A0 0.000267814
49 *138:32 *1231:A 5.66551e-05
50 *138:32 *1232:A 0.00013883
51 *138:32 *1233:A 0.000440605
52 *138:32 *1351:A 0.000617355
53 *138:32 *263:32 3.69697e-05
54 *138:47 *1018:A 7.73758e-05
55 *138:47 *1021:A0 7.83587e-05
56 *138:47 *1152:B1 0
57 *138:47 *1283:A 0
58 *138:47 *242:10 7.8327e-05
59 *138:49 *1235:A 0.000115611
60 *138:49 *1309:A 0
61 *138:49 *242:10 0.000103993
62 *138:53 *1041:A1 9.6145e-05
63 *138:55 *1041:A1 5.72899e-05
64 *138:59 *1041:A1 2.27416e-05
65 *138:63 *1032:A0 0
66 *138:63 *1033:A0 0.000272665
67 *138:63 *1041:B1 0
68 *138:63 *1041:B2 0
69 *138:63 *1229:A 0
70 *138:63 *1294:A 3.34366e-05
71 *1024:S *138:20 9.90367e-05
72 *1032:S *138:59 0.000119763
73 *1039:A *138:53 4.05411e-05
74 *1039:B *138:49 0
75 *1039:B *138:53 0.000126639
76 *1040:B *138:55 2.89114e-05
77 *1265:D *1167:B1 0
78 *1273:D *138:53 1.33343e-05
79 *1273:D *138:55 0.000139913
80 *1273:RESET_B *1013:S 0
81 *1275:D *1167:B1 0
82 *1276:D *138:20 8.35655e-05
83 *1276:RESET_B *138:32 0
84 *134:60 *138:32 0
85 *134:60 *138:47 0
86 *134:119 *138:49 0
87 *136:42 *138:20 3.17148e-05
88 *136:55 *138:20 4.08637e-05
89 *136:97 *1013:S 0
90 *136:97 *138:47 0
91 *136:97 *138:49 0
*RES
1 *1012:Y *138:20 33.9964 
2 *138:20 *138:26 13.6786 
3 *138:26 *138:32 27.2321 
4 *138:32 *1021:S 15.1929 
5 *138:32 *138:47 10.4464 
6 *138:47 *138:49 8.01786 
7 *138:49 *138:53 12.4286 
8 *138:53 *138:55 2.17857 
9 *138:55 *138:59 8.73214 
10 *138:59 *138:63 5.21429 
11 *138:63 *1167:B1 23.5857 
12 *138:63 *1033:S 16.3 
13 *138:59 *1037:S 15.7464 
14 *138:55 *1041:A2 10.0321 
15 *138:53 *1040:A 10.0321 
16 *138:49 *1013:S 15.7464 
17 *138:47 *1017:S 22.675 
18 *138:26 *1025:S 10.2643 
19 *138:20 *1029:S 9.83571 
*END

*D_NET *139 0.000174046
*CONN
*I *1014:A I *D sky130_fd_sc_hd__clkbuf_1
*I *1013:X O *D sky130_fd_sc_hd__mux2_1
*CAP
1 *1014:A 5.87253e-05
2 *1013:X 5.87253e-05
3 *1014:A *1013:A1 5.65955e-05
*RES
1 *1013:X *1014:A 19.8679 
*END

*D_NET *140 0.000931608
*CONN
*I *1017:A0 I *D sky130_fd_sc_hd__mux2_1
*I *1016:X O *D sky130_fd_sc_hd__mux2_1
*CAP
1 *1017:A0 0.000242862
2 *1016:X 0.000242862
3 *1017:A0 *1338:A 0.000344925
4 *1017:A0 *1346:A 0.00010096
5 *1017:A0 *277:24 0
6 *132:59 *1017:A0 0
7 *132:93 *1017:A0 0
*RES
1 *1016:X *1017:A0 32.9214 
*END

*D_NET *141 0.00141102
*CONN
*I *1018:A I *D sky130_fd_sc_hd__clkbuf_1
*I *1017:X O *D sky130_fd_sc_hd__mux2_1
*CAP
1 *1018:A 0.000478994
2 *1017:X 0.000478994
3 *1017:S *1018:A 0.000297331
4 *136:97 *1018:A 7.8327e-05
5 *138:47 *1018:A 7.73758e-05
*RES
1 *1017:X *1018:A 35.0107 
*END

*D_NET *142 0.000939819
*CONN
*I *1021:A0 I *D sky130_fd_sc_hd__mux2_1
*I *1020:X O *D sky130_fd_sc_hd__mux2_1
*CAP
1 *1021:A0 0.00022422
2 *1020:X 0.00022422
3 *1021:A0 *1020:A0 3.4879e-05
4 *1021:A0 *1022:A 0
5 *1021:A0 *1174:A 0.000110327
6 *1021:A0 *1181:A 0
7 *138:32 *1021:A0 0.000267814
8 *138:47 *1021:A0 7.83587e-05
*RES
1 *1020:X *1021:A0 32.9214 
*END

*D_NET *143 0.000295229
*CONN
*I *1022:A I *D sky130_fd_sc_hd__clkbuf_1
*I *1021:X O *D sky130_fd_sc_hd__mux2_1
*CAP
1 *1022:A 9.10632e-05
2 *1021:X 9.10632e-05
3 *1022:A *1021:A1 7.57394e-05
4 *1022:A *1174:A 1.76039e-05
5 *1022:A *1181:A 0
6 *1021:A0 *1022:A 0
7 *1278:D *1022:A 1.97595e-05
*RES
1 *1021:X *1022:A 29.6893 
*END

*D_NET *144 0.00130314
*CONN
*I *1025:A0 I *D sky130_fd_sc_hd__mux2_1
*I *1024:X O *D sky130_fd_sc_hd__mux2_1
*CAP
1 *1025:A0 0.00029323
2 *1024:X 0.00029323
3 *1025:A0 *1024:A1 0
4 *1025:A0 *1029:A0 7.83659e-05
5 *1025:A0 *1296:A 0
6 *1025:A0 *1343:A 8.47107e-05
7 *1025:A0 *277:24 6.95299e-05
8 *136:55 *1025:A0 5.33334e-05
9 *138:20 *1025:A0 6.74911e-05
10 *138:26 *1025:A0 0.000363252
*RES
1 *1024:X *1025:A0 35.35 
*END

*D_NET *145 0.000852272
*CONN
*I *1026:A I *D sky130_fd_sc_hd__clkbuf_1
*I *1025:X O *D sky130_fd_sc_hd__mux2_1
*CAP
1 *1026:A 0.000252463
2 *1025:X 0.000252463
3 *1026:A *277:24 0.000347347
4 *1276:RESET_B *1026:A 0
5 *1277:D *1026:A 0
*RES
1 *1025:X *1026:A 33.3321 
*END

*D_NET *146 0.000349209
*CONN
*I *1029:A0 I *D sky130_fd_sc_hd__mux2_1
*I *1028:X O *D sky130_fd_sc_hd__mux2_1
*CAP
1 *1029:A0 6.77691e-05
2 *1028:X 6.77691e-05
3 *1029:A0 *1029:A1 0.000135304
4 *1025:A0 *1029:A0 7.83659e-05
*RES
1 *1028:X *1029:A0 29.1714 
*END

*D_NET *147 0.000927979
*CONN
*I *1030:A I *D sky130_fd_sc_hd__clkbuf_1
*I *1029:X O *D sky130_fd_sc_hd__mux2_1
*CAP
1 *1030:A 0.000327432
2 *1029:X 0.000327432
3 *1030:A *1024:A1 0
4 *1024:S *1030:A 5.71472e-05
5 *138:20 *1030:A 0.000215969
*RES
1 *1029:X *1030:A 34.0286 
*END

*D_NET *148 0.0010517
*CONN
*I *1033:A0 I *D sky130_fd_sc_hd__mux2_1
*I *1032:X O *D sky130_fd_sc_hd__mux2_1
*CAP
1 *1033:A0 0.000268933
2 *1032:X 0.000268933
3 *1033:A0 *1041:B1 0
4 *1033:A0 *264:29 0.000139625
5 *1167:B1 *1033:A0 0.000101545
6 *138:63 *1033:A0 0.000272665
*RES
1 *1032:X *1033:A0 33.6357 
*END

*D_NET *149 0.000545306
*CONN
*I *1034:A I *D sky130_fd_sc_hd__clkbuf_1
*I *1033:X O *D sky130_fd_sc_hd__mux2_1
*CAP
1 *1034:A 0.000148541
2 *1033:X 0.000148541
3 *1034:A *1230:A 3.99614e-06
4 *1034:A *264:29 0.000115701
5 *1034:A *264:38 7.32955e-05
6 *1275:D *1034:A 5.52302e-05
*RES
1 *1033:X *1034:A 22.0464 
*END

*D_NET *150 0.000399304
*CONN
*I *1037:A0 I *D sky130_fd_sc_hd__mux2_1
*I *1036:X O *D sky130_fd_sc_hd__mux2_1
*CAP
1 *1037:A0 0.000175241
2 *1036:X 0.000175241
3 *1037:A0 *1037:A1 4.88212e-05
*RES
1 *1036:X *1037:A0 21.5107 
*END

*D_NET *151 0.000748971
*CONN
*I *1038:A I *D sky130_fd_sc_hd__clkbuf_1
*I *1037:X O *D sky130_fd_sc_hd__mux2_1
*CAP
1 *1038:A 0.000374486
2 *1037:X 0.000374486
*RES
1 *1037:X *1038:A 24.7964 
*END

*D_NET *152 0.000814685
*CONN
*I *1041:B1 I *D sky130_fd_sc_hd__a22o_1
*I *1040:Y O *D sky130_fd_sc_hd__nor2_1
*CAP
1 *1041:B1 0.000337745
2 *1040:Y 0.000337745
3 *1041:B1 *1041:A1 5.33005e-05
4 *1041:B1 *1228:A 7.6644e-05
5 *1032:S *1041:B1 9.25014e-06
6 *1033:A0 *1041:B1 0
7 *138:63 *1041:B1 0
*RES
1 *1040:Y *1041:B1 41.6893 
*END

*D_NET *153 0.000478283
*CONN
*I *1044:A I *D sky130_fd_sc_hd__buf_2
*I *1043:X O *D sky130_fd_sc_hd__and3_1
*CAP
1 *1044:A 0.000130837
2 *1043:X 0.000130837
3 *1044:A *1043:C 5.39166e-06
4 *1044:A *154:14 5.46971e-05
5 *1044:A *270:75 1.02504e-05
6 *1044:A *270:92 0.00014627
*RES
1 *1043:X *1044:A 30.0821 
*END

*D_NET *154 0.0155403
*CONN
*I *1045:C1 I *D sky130_fd_sc_hd__o211a_1
*I *1157:B2 I *D sky130_fd_sc_hd__a22o_1
*I *1158:A3 I *D sky130_fd_sc_hd__a31o_1
*I *1159:A4 I *D sky130_fd_sc_hd__a41o_1
*I *1148:B I *D sky130_fd_sc_hd__nand2_1
*I *1164:A2 I *D sky130_fd_sc_hd__a22o_1
*I *1160:B1 I *D sky130_fd_sc_hd__o32a_1
*I *1110:C1 I *D sky130_fd_sc_hd__o311a_1
*I *1044:X O *D sky130_fd_sc_hd__buf_2
*CAP
1 *1045:C1 0.000299075
2 *1157:B2 3.64675e-05
3 *1158:A3 0.000143795
4 *1159:A4 0.000162582
5 *1148:B 1.11927e-05
6 *1164:A2 0.000205551
7 *1160:B1 0
8 *1110:C1 0.000561545
9 *1044:X 0.000633462
10 *154:96 0.00108495
11 *154:77 0.000850571
12 *154:60 0.000280227
13 *154:53 0.00011608
14 *154:24 0.00213626
15 *154:20 0.00188383
16 *154:14 0.0013074
17 *1045:C1 *1157:A2 0
18 *1110:C1 *1100:B 0.000129448
19 *1110:C1 *1110:B1 5.65955e-05
20 *1110:C1 *1111:A1 0.00011644
21 *1110:C1 *1111:A2 9.09693e-05
22 *1110:C1 *1111:B1 0.000171954
23 *1110:C1 *1163:B 8.46259e-06
24 *1110:C1 *1164:B1 7.6644e-05
25 *1110:C1 *159:21 0.000258113
26 *1110:C1 *176:38 3.43995e-05
27 *1110:C1 *186:22 0.000139913
28 *1157:B2 *1157:A1 3.99614e-06
29 *1158:A3 *1020:A0 0.000493423
30 *1158:A3 *1056:A 0.000185541
31 *1158:A3 *1158:B1 4.24329e-05
32 *1158:A3 *163:8 3.56005e-05
33 *1159:A4 *1159:A2 0.000100831
34 *1159:A4 *1159:A3 2.976e-05
35 *1159:A4 *1159:B1 0.000141734
36 *1159:A4 *355:25 0.00012452
37 *1159:A4 *355:48 2.48326e-05
38 *1164:A2 *1149:S 0.000129015
39 *1164:A2 *1160:A2 1.21258e-05
40 *1164:A2 *1160:A3 9.60939e-05
41 *1164:A2 *1160:B2 2.89016e-05
42 *1164:A2 *1164:B1 9.58126e-05
43 *1164:A2 *1270:CLK 5.33005e-05
44 *1164:A2 *1271:CLK 0.000332771
45 *1164:A2 *192:16 9.91086e-05
46 *1164:A2 *247:22 2.2351e-05
47 *1164:A2 *267:23 3.17148e-05
48 *154:14 *1072:A1 0.000226785
49 *154:14 *1157:B1 0
50 *154:14 *1205:A 0
51 *154:14 *1252:CLK 0.000136951
52 *154:14 *250:99 0.000138881
53 *154:14 *270:92 7.58583e-05
54 *154:20 *1157:A1 2.95726e-05
55 *154:20 *1157:B1 0.000140933
56 *154:24 *1154:A2 0.000440718
57 *154:24 *1157:A1 3.69047e-06
58 *154:24 *193:14 0.000234063
59 *154:53 *1100:B 0.000122754
60 *154:53 *1100:C 0.000112226
61 *154:53 *1164:B1 0.000270243
62 *154:53 *192:16 1.02504e-05
63 *154:60 *1160:B2 1.04232e-05
64 *154:77 *1148:A 5.33005e-05
65 *154:77 *1160:A2 2.40354e-05
66 *154:77 *1160:A3 1.33343e-05
67 *154:77 *230:6 4.18895e-05
68 *154:96 *1020:A0 0.000271339
69 *154:96 *1149:S 0
70 *154:96 *1160:A2 6.97409e-05
71 *154:96 *1164:B1 0
72 *154:96 *355:25 0
73 *1044:A *154:14 5.46971e-05
74 *1236:D *1045:C1 2.27416e-05
75 *1236:D *154:20 6.12927e-05
76 *1253:D *154:14 2.79092e-05
77 *1253:RESET_B *154:14 0
78 *1266:RESET_B *154:24 4.70821e-05
79 *1292:A *1158:A3 1.97695e-05
*RES
1 *1044:X *154:14 32.05 
2 *154:14 *154:20 5.60714 
3 *154:20 *154:24 22.2857 
4 *154:24 *1110:C1 35.2464 
5 *154:24 *154:53 7.96429 
6 *154:53 *1160:B1 9.3 
7 *154:53 *154:60 0.428571 
8 *154:60 *1164:A2 24.8714 
9 *154:60 *154:77 1.35714 
10 *154:77 *1148:B 9.72857 
11 *154:77 *154:96 23.3214 
12 *154:96 *1159:A4 22.2643 
13 *154:96 *1158:A3 14.675 
14 *154:20 *1157:B2 10.0321 
15 *154:14 *1045:C1 14.3714 
*END

*D_NET *155 0.0142607
*CONN
*I *1052:A2 I *D sky130_fd_sc_hd__a32o_1
*I *1159:A3 I *D sky130_fd_sc_hd__a41o_1
*I *1158:A2 I *D sky130_fd_sc_hd__a31o_1
*I *1154:A2 I *D sky130_fd_sc_hd__a31o_1
*I *1058:A3 I *D sky130_fd_sc_hd__a41o_1
*I *1165:B2 I *D sky130_fd_sc_hd__a2bb2o_1
*I *1057:A3 I *D sky130_fd_sc_hd__a31oi_1
*I *1079:A1 I *D sky130_fd_sc_hd__a31o_1
*I *1078:B1 I *D sky130_fd_sc_hd__a21oi_1
*I *1086:B2 I *D sky130_fd_sc_hd__o221ai_1
*I *1046:X O *D sky130_fd_sc_hd__clkbuf_4
*CAP
1 *1052:A2 0
2 *1159:A3 0.00030579
3 *1158:A2 0
4 *1154:A2 0.000169531
5 *1058:A3 2.22847e-05
6 *1165:B2 0.000297335
7 *1057:A3 0
8 *1079:A1 0.000143258
9 *1078:B1 0
10 *1086:B2 0.000369304
11 *1046:X 0.000127743
12 *155:125 0.000960854
13 *155:104 0.000953904
14 *155:96 0.000619888
15 *155:77 0.000623157
16 *155:55 0.00043149
17 *155:51 0.000359495
18 *155:18 0.000533921
19 *155:10 0.000775991
20 *155:6 0.000710907
21 *1079:A1 *1079:A3 2.89114e-05
22 *1079:A1 *1080:A3 0
23 *1079:A1 *1080:B1 1.24368e-05
24 *1079:A1 *161:16 3.18676e-05
25 *1079:A1 *161:39 1.21289e-05
26 *1086:B2 *1076:A 3.90513e-05
27 *1086:B2 *1076:B 0.000187081
28 *1086:B2 *1078:A2 5.71472e-05
29 *1086:B2 *251:55 0.000251915
30 *1159:A3 *1159:A2 0
31 *1159:A3 *1159:B1 4.5934e-05
32 *1159:A3 *240:12 3.58616e-05
33 *1165:B2 *1057:B1 6.86176e-05
34 *1165:B2 *250:91 5.10457e-05
35 *155:6 *251:55 0.000122586
36 *155:6 *293:86 0.000527241
37 *155:6 *357:25 2.17647e-05
38 *155:10 *1076:B 8.00806e-05
39 *155:10 *1078:A2 0
40 *155:10 *174:30 0.000179562
41 *155:10 *174:32 0.000165262
42 *155:10 *176:21 0
43 *155:10 *272:14 7.22594e-05
44 *155:10 *273:42 0
45 *155:10 *274:44 0.00018473
46 *155:18 *1076:B 0.00010294
47 *155:18 *1078:A1 9.80173e-05
48 *155:18 *1078:A2 0.00014285
49 *155:18 *272:14 0.000150625
50 *155:18 *274:19 0
51 *155:51 *251:55 0.000113235
52 *155:51 *293:86 0.000477557
53 *155:55 *1057:A2 2.69614e-05
54 *155:55 *1057:B1 5.01876e-06
55 *155:55 *1058:A4 0
56 *155:55 *1101:A2 0
57 *155:55 *1221:B 6.5185e-05
58 *155:55 *251:61 2.11362e-05
59 *155:55 *274:44 0
60 *155:77 *293:86 0.00030178
61 *155:96 *1051:A1 5.1588e-05
62 *155:96 *1052:A3 2.49484e-05
63 *155:96 *1052:B1 7.6021e-05
64 *155:96 *1058:A1 5.33005e-05
65 *155:96 *1058:A2 8.25843e-06
66 *155:96 *1153:A3 0.000164058
67 *155:96 *1266:CLK 0
68 *155:96 *156:93 0.000188118
69 *155:96 *157:50 0.000488825
70 *155:96 *261:8 4.90287e-05
71 *155:96 *271:93 2.39876e-05
72 *155:96 *293:86 0.000166264
73 *155:96 *293:101 8.17502e-05
74 *155:104 *1052:A1 2.89016e-05
75 *155:104 *1052:B1 1.24368e-05
76 *155:104 *187:10 7.49387e-06
77 *155:104 *261:8 0.000102545
78 *155:104 *293:118 0
79 *155:125 *1057:B1 0
80 *155:125 *193:33 1.17968e-05
81 *155:125 *261:8 0.000167684
82 *155:125 *261:42 0
83 *155:125 *354:80 7.90803e-05
84 *155:125 *359:16 0.000101545
85 *1159:A4 *1159:A3 2.976e-05
86 *1238:D *1154:A2 4.88212e-05
87 *1238:D *155:125 3.66196e-05
88 *1254:D *1086:B2 0.000177948
89 *1266:D *155:104 3.25247e-05
90 *1266:D *155:125 2.19778e-05
91 *1266:RESET_B *1165:B2 0.000127439
92 *134:14 *1159:A3 0.000123288
93 *134:14 *155:125 0.000248378
94 *154:24 *1154:A2 0.000440718
*RES
1 *1046:X *155:6 14.3536 
2 *155:6 *155:10 14.6429 
3 *155:10 *155:18 8.64286 
4 *155:18 *1086:B2 26.925 
5 *155:18 *1078:B1 9.3 
6 *155:10 *1079:A1 16.425 
7 *155:6 *155:51 4.64286 
8 *155:51 *155:55 7.35714 
9 *155:55 *1057:A3 13.8 
10 *155:55 *1165:B2 19.675 
11 *155:51 *155:77 3 
12 *155:77 *1058:A3 9.72857 
13 *155:77 *155:96 22.1786 
14 *155:96 *155:104 7.21429 
15 *155:104 *1154:A2 18.4607 
16 *155:104 *155:125 14.1964 
17 *155:125 *1158:A2 13.8 
18 *155:125 *1159:A3 18.4429 
19 *155:96 *1052:A2 9.3 
*END

*D_NET *156 0.0120108
*CONN
*I *1087:D_N I *D sky130_fd_sc_hd__or4b_1
*I *1074:D1 I *D sky130_fd_sc_hd__o2111a_1
*I *1102:A I *D sky130_fd_sc_hd__xor2_1
*I *1094:A1 I *D sky130_fd_sc_hd__a21bo_1
*I *1054:B I *D sky130_fd_sc_hd__nand2b_2
*I *1162:C I *D sky130_fd_sc_hd__nand3_1
*I *1153:A1 I *D sky130_fd_sc_hd__o31a_1
*I *1049:A I *D sky130_fd_sc_hd__nor2_1
*I *1051:A2 I *D sky130_fd_sc_hd__a211o_1
*I *1057:A2 I *D sky130_fd_sc_hd__a31oi_1
*I *1047:X O *D sky130_fd_sc_hd__clkbuf_4
*CAP
1 *1087:D_N 0
2 *1074:D1 0.000339724
3 *1102:A 0.000162505
4 *1094:A1 0
5 *1054:B 0
6 *1162:C 0
7 *1153:A1 0.000147781
8 *1049:A 3.12041e-05
9 *1051:A2 0
10 *1057:A2 0.000351214
11 *1047:X 0.000274398
12 *156:108 0.000299423
13 *156:95 0.000222548
14 *156:93 0.000774078
15 *156:60 0.000337029
16 *156:51 0.000398504
17 *156:24 0.000624678
18 *156:18 8.69716e-05
19 *156:16 0.000741884
20 *156:14 0.00061359
21 *1049:A *1049:B 7.03456e-05
22 *1049:A *159:71 0
23 *1057:A2 *1057:A1 7.20217e-06
24 *1057:A2 *1057:B1 3.17898e-05
25 *1057:A2 *1101:A2 2.06178e-05
26 *1057:A2 *1162:A 9.54798e-06
27 *1057:A2 *236:14 0.000151855
28 *1057:A2 *251:61 2.84308e-05
29 *1074:D1 *1074:C1 7.54305e-05
30 *1074:D1 *1081:B 4.63699e-05
31 *1074:D1 *1286:A 0.000141729
32 *1074:D1 *157:27 0.000143967
33 *1074:D1 *313:19 0.000303972
34 *1102:A *1094:A2 0.000446597
35 *1102:A *1102:B 0.000139208
36 *1102:A *266:36 0.000141734
37 *1102:A *270:24 7.17235e-05
38 *1102:A *270:28 9.92409e-05
39 *1153:A1 *1049:B 1.21258e-05
40 *1153:A1 *1052:A3 5.33005e-05
41 *1153:A1 *1153:A2 1.08359e-05
42 *1153:A1 *1154:A3 0.000225765
43 *1153:A1 *293:118 9.60939e-05
44 *1153:A1 *305:16 9.60939e-05
45 *1153:A1 *305:28 0.000168224
46 *1153:A1 *354:25 1.97865e-05
47 *156:14 *1162:B 9.58126e-05
48 *156:14 *1349:A 0.000474605
49 *156:14 *187:14 0
50 *156:14 *354:10 0.000359846
51 *156:16 *1058:B1 8.17274e-05
52 *156:16 *1162:B 0.000736169
53 *156:18 *1058:B1 0.000163455
54 *156:18 *1162:B 0.000175892
55 *156:24 *1057:B1 5.97144e-06
56 *156:24 *1058:B1 5.49489e-05
57 *156:24 *1162:B 5.42134e-05
58 *156:51 *1051:B1 9.41642e-05
59 *156:51 *1052:B1 2.42516e-05
60 *156:51 *1057:B1 0
61 *156:51 *1101:A2 0.000375033
62 *156:51 *1162:A 4.45684e-05
63 *156:51 *159:50 1.94945e-05
64 *156:51 *236:14 1.17182e-05
65 *156:60 *1049:B 1.39841e-05
66 *156:60 *1051:A1 2.89016e-05
67 *156:60 *1051:B1 2.55033e-05
68 *156:60 *1052:A3 5.52238e-05
69 *156:60 *1052:B1 5.52302e-05
70 *156:60 *354:25 5.74499e-06
71 *156:93 *1055:A 4.66511e-05
72 *156:93 *1058:B1 2.03079e-05
73 *156:93 *1266:CLK 0
74 *156:93 *157:50 0.000138656
75 *156:93 *162:18 5.73431e-05
76 *156:93 *271:93 9.91086e-05
77 *156:93 *293:101 6.20855e-06
78 *156:93 *305:28 0
79 *156:95 *1055:A 0.000150618
80 *156:95 *305:28 0
81 *156:108 *1055:A 1.18064e-05
82 *156:108 *270:32 5.83233e-05
83 *156:108 *270:52 7.6644e-05
84 *156:108 *305:28 0
85 *1075:A2 *156:14 5.52238e-05
86 *1264:D *156:93 0.000100831
87 *155:55 *1057:A2 2.69614e-05
88 *155:96 *156:93 0.000188118
*RES
1 *1047:X *156:14 25.9786 
2 *156:14 *156:16 7.10714 
3 *156:16 *156:18 1.76786 
4 *156:18 *156:24 5.46429 
5 *156:24 *1057:A2 23.1523 
6 *156:24 *156:51 10.4286 
7 *156:51 *1051:A2 9.3 
8 *156:51 *156:60 3.32143 
9 *156:60 *1049:A 10.5679 
10 *156:60 *1153:A1 22.8536 
11 *156:18 *1162:C 9.3 
12 *156:16 *156:93 12.2143 
13 *156:93 *156:95 1.94643 
14 *156:95 *1054:B 13.8 
15 *156:95 *156:108 7.28571 
16 *156:108 *1094:A1 9.3 
17 *156:108 *1102:A 15.175 
18 *156:93 *1074:D1 29.1036 
19 *156:14 *1087:D_N 9.3 
*END

*D_NET *157 0.0079466
*CONN
*I *1153:A3 I *D sky130_fd_sc_hd__o31a_1
*I *1051:C1 I *D sky130_fd_sc_hd__a211o_1
*I *1049:B I *D sky130_fd_sc_hd__nor2_1
*I *1075:A3 I *D sky130_fd_sc_hd__a32o_1
*I *1096:B I *D sky130_fd_sc_hd__and2_1
*I *1048:Y O *D sky130_fd_sc_hd__nand2_2
*CAP
1 *1153:A3 0.000133098
2 *1051:C1 0
3 *1049:B 6.64053e-05
4 *1075:A3 0.000382339
5 *1096:B 0.000107899
6 *1048:Y 4.22068e-05
7 *157:52 6.64053e-05
8 *157:50 0.000744503
9 *157:27 0.00169281
10 *157:8 0.000849169
11 *1049:B *1051:B1 3.45371e-05
12 *1049:B *354:25 0.000137983
13 *1075:A3 *1075:B1 3.99614e-06
14 *1075:A3 *313:6 1.32552e-05
15 *1096:B *1096:A 3.08366e-05
16 *1096:B *274:8 0
17 *1153:A3 *1052:A1 9.41642e-05
18 *1153:A3 *1052:A3 0.000100823
19 *1153:A3 *187:10 0.000216755
20 *1153:A3 *293:101 3.69949e-05
21 *1153:A3 *293:118 2.83192e-05
22 *1153:A3 *305:16 5.33005e-05
23 *157:8 *1074:B1 2.84026e-05
24 *157:27 *1058:A4 7.7591e-05
25 *157:27 *1074:B1 0
26 *157:27 *1075:A1 0
27 *157:27 *1081:B 1.23511e-05
28 *157:27 *1096:A 1.00332e-05
29 *157:27 *1097:A 0.000190588
30 *157:27 *1101:A2 0.00024414
31 *157:27 *1101:B1 2.61189e-05
32 *157:27 *274:8 0
33 *157:27 *274:32 0
34 *157:50 *162:18 9.25014e-06
35 *157:50 *250:91 1.36681e-05
36 *157:50 *261:8 0.000758048
37 *157:50 *293:101 5.64742e-05
38 *1049:A *1049:B 7.03456e-05
39 *1074:D1 *157:27 0.000143967
40 *1075:A2 *1075:A3 0.000488719
41 *1075:A2 *157:50 0.000163455
42 *1153:A1 *1049:B 1.21258e-05
43 *155:96 *1153:A3 0.000164058
44 *155:96 *157:50 0.000488825
45 *156:60 *1049:B 1.39841e-05
46 *156:93 *157:50 0.000138656
*RES
1 *1048:Y *157:8 14.3357 
2 *157:8 *1096:B 15.7464 
3 *157:8 *157:27 17.4643 
4 *157:27 *1075:A3 15.0857 
5 *157:27 *157:50 28.1071 
6 *157:50 *157:52 4.5 
7 *157:52 *1049:B 11.5143 
8 *157:52 *1051:C1 9.3 
9 *157:50 *1153:A3 18.2286 
*END

*D_NET *158 0.00176934
*CONN
*I *1154:A3 I *D sky130_fd_sc_hd__a31o_1
*I *1052:A3 I *D sky130_fd_sc_hd__a32o_1
*I *1049:Y O *D sky130_fd_sc_hd__nor2_1
*CAP
1 *1154:A3 0.000259955
2 *1052:A3 0.000150147
3 *1049:Y 0
4 *158:4 0.000410102
5 *1052:A3 *1052:A1 5.52238e-05
6 *1052:A3 *293:101 0.000144038
7 *1154:A3 *1153:A2 9.91086e-05
8 *1154:A3 *1154:A1 0.000103116
9 *1154:A3 *1266:CLK 5.34835e-05
10 *1154:A3 *354:25 5.19842e-06
11 *1153:A1 *1052:A3 5.33005e-05
12 *1153:A1 *1154:A3 0.000225765
13 *1153:A3 *1052:A3 0.000100823
14 *1266:D *1052:A3 2.89016e-05
15 *155:96 *1052:A3 2.49484e-05
16 *156:60 *1052:A3 5.52238e-05
*RES
1 *1049:Y *158:4 9.3 
2 *158:4 *1052:A3 21.7286 
3 *158:4 *1154:A3 23.7286 
*END

*D_NET *159 0.00834646
*CONN
*I *1051:B1 I *D sky130_fd_sc_hd__a211o_1
*I *1156:B1 I *D sky130_fd_sc_hd__o211a_1
*I *1087:B I *D sky130_fd_sc_hd__or4b_1
*I *1090:A1 I *D sky130_fd_sc_hd__o21ai_1
*I *1153:A2 I *D sky130_fd_sc_hd__o31a_1
*I *1111:B1 I *D sky130_fd_sc_hd__o21a_4
*I *1100:A I *D sky130_fd_sc_hd__and3_2
*I *1050:Y O *D sky130_fd_sc_hd__inv_2
*CAP
1 *1051:B1 0.00010261
2 *1156:B1 0
3 *1087:B 0
4 *1090:A1 0.000217592
5 *1153:A2 9.56316e-05
6 *1111:B1 0.00013783
7 *1100:A 6.36875e-05
8 *1050:Y 4.1217e-05
9 *159:77 0.000315003
10 *159:71 0.000363211
11 *159:50 0.000918314
12 *159:38 0.00126163
13 *159:21 0.000949816
14 *159:8 0.000314758
15 *1051:B1 *1051:A1 5.52238e-05
16 *1051:B1 *1160:A2 0.000208154
17 *1051:B1 *354:25 5.33005e-05
18 *1090:A1 *1087:A 9.71197e-05
19 *1090:A1 *1091:B1 4.51726e-05
20 *1090:A1 *1162:B 9.80173e-05
21 *1090:A1 *270:92 0.000103504
22 *1100:A *1100:C 3.4846e-06
23 *1100:A *359:26 3.19595e-05
24 *1153:A2 *1154:A1 0.00018553
25 *1153:A2 *187:10 5.33005e-05
26 *1153:A2 *305:16 5.33005e-05
27 *1153:A2 *305:28 2.0362e-05
28 *159:8 *186:22 5.49489e-05
29 *159:38 *1160:A2 0.000352565
30 *159:50 *1057:B1 0
31 *159:71 *1156:A1 9.7049e-06
32 *159:71 *1156:A2 1.04232e-05
33 *159:71 *1156:C1 0.000271904
34 *159:71 *354:25 5.86159e-05
35 *159:77 *1349:A 0.000271958
36 *159:77 *310:12 4.97876e-05
37 *159:77 *354:10 0.000128154
38 *159:77 *354:21 0.000151333
39 *159:77 *354:59 5.83304e-05
40 *1049:A *159:71 0
41 *1049:B *1051:B1 3.45371e-05
42 *1110:C1 *1111:B1 0.000171954
43 *1110:C1 *159:21 0.000258113
44 *1153:A1 *1153:A2 1.08359e-05
45 *1154:A3 *1153:A2 9.91086e-05
46 *1268:D *1111:B1 2.84026e-05
47 *136:29 *1090:A1 0.000396898
48 *156:51 *1051:B1 9.41642e-05
49 *156:51 *159:50 1.94945e-05
50 *156:60 *1051:B1 2.55033e-05
*RES
1 *1050:Y *159:8 14.3357 
2 *159:8 *1100:A 15.1393 
3 *159:8 *159:21 4 
4 *159:21 *1111:B1 16.5857 
5 *159:21 *159:38 14.5 
6 *159:38 *159:50 13.1164 
7 *159:50 *1153:A2 16.7375 
8 *159:50 *159:71 10 
9 *159:71 *159:77 13.0714 
10 *159:77 *1090:A1 15.5143 
11 *159:77 *1087:B 9.3 
12 *159:71 *1156:B1 9.3 
13 *159:38 *1051:B1 12.3179 
*END

*D_NET *160 0.000695041
*CONN
*I *1052:B1 I *D sky130_fd_sc_hd__a32o_1
*I *1051:X O *D sky130_fd_sc_hd__a211o_1
*CAP
1 *1052:B1 0.000184683
2 *1051:X 0.000184683
3 *1052:B1 *187:10 7.11733e-06
4 *1052:B1 *261:8 0.000150618
5 *155:96 *1052:B1 7.6021e-05
6 *155:104 *1052:B1 1.24368e-05
7 *156:51 *1052:B1 2.42516e-05
8 *156:60 *1052:B1 5.52302e-05
*RES
1 *1051:X *1052:B1 31.1446 
*END

*D_NET *161 0.00639466
*CONN
*I *1055:A I *D sky130_fd_sc_hd__inv_2
*I *1101:A1 I *D sky130_fd_sc_hd__o21ai_1
*I *1085:A1 I *D sky130_fd_sc_hd__a21o_1
*I *1082:A2 I *D sky130_fd_sc_hd__a31o_1
*I *1076:A I *D sky130_fd_sc_hd__nand2_1
*I *1079:A2 I *D sky130_fd_sc_hd__a31o_1
*I *1054:Y O *D sky130_fd_sc_hd__nand2b_2
*CAP
1 *1055:A 0.000167486
2 *1101:A1 0
3 *1085:A1 0.000272475
4 *1082:A2 9.01011e-05
5 *1076:A 0.000151791
6 *1079:A2 0
7 *1054:Y 0
8 *161:50 0.000435975
9 *161:39 0.000749614
10 *161:16 0.00084344
11 *161:14 0.000486369
12 *161:4 0.000334839
13 *1055:A *1101:A2 1.5942e-05
14 *1055:A *1287:A 7.97875e-05
15 *1055:A *162:18 9.25014e-06
16 *1055:A *261:8 5.41797e-05
17 *1055:A *270:52 9.90431e-05
18 *1055:A *313:19 4.87953e-05
19 *1076:A *1086:A1 0.00012501
20 *1076:A *175:10 0.00010326
21 *1076:A *179:14 7.80714e-06
22 *1076:A *251:55 3.75052e-05
23 *1082:A2 *1082:A3 4.72818e-05
24 *1082:A2 *1082:B1 2.89644e-05
25 *1082:A2 *273:38 0
26 *1085:A1 *1082:A1 2.19216e-05
27 *1085:A1 *1082:A3 8.4835e-05
28 *1085:A1 *1085:B1 9.99853e-05
29 *1085:A1 *1086:A1 9.95103e-05
30 *1085:A1 *165:28 9.25014e-06
31 *1085:A1 *251:55 1.18554e-05
32 *161:14 *1101:A2 0.000179032
33 *161:14 *270:32 1.19402e-05
34 *161:14 *270:52 2.1527e-05
35 *161:16 *1079:B1 0.00014285
36 *161:39 *1079:A3 1.33343e-05
37 *161:39 *1081:C_N 0.000183713
38 *161:39 *1286:A 0.000244565
39 *161:39 *174:32 0.00010326
40 *161:39 *179:14 0.000139208
41 *161:39 *272:14 3.99614e-06
42 *161:39 *274:32 0
43 *161:50 *1086:A1 0.000202128
44 *161:50 *251:55 7.39637e-05
45 *1075:A2 *1055:A 9.80173e-05
46 *1079:A1 *161:16 3.18676e-05
47 *1079:A1 *161:39 1.21289e-05
48 *1086:B2 *1076:A 3.90513e-05
49 *1250:D *161:14 1.39726e-05
50 *1254:D *1076:A 0.000154762
51 *1256:D *1076:A 0
52 *156:93 *1055:A 4.66511e-05
53 *156:95 *1055:A 0.000150618
54 *156:108 *1055:A 1.18064e-05
*RES
1 *1054:Y *161:4 9.3 
2 *161:4 *161:14 12.4286 
3 *161:14 *161:16 5.875 
4 *161:16 *1079:A2 9.3 
5 *161:16 *161:39 23.7679 
6 *161:39 *1076:A 18.175 
7 *161:39 *161:50 2.55357 
8 *161:50 *1082:A2 15.6036 
9 *161:50 *1085:A1 18.1571 
10 *161:14 *1101:A1 9.3 
11 *161:4 *1055:A 23.4786 
*END

*D_NET *162 0.00402045
*CONN
*I *1058:A4 I *D sky130_fd_sc_hd__a41o_1
*I *1081:B I *D sky130_fd_sc_hd__or3b_1
*I *1055:Y O *D sky130_fd_sc_hd__inv_2
*CAP
1 *1058:A4 0.00025675
2 *1081:B 0.00047763
3 *1055:Y 0.000217723
4 *162:18 0.000952103
5 *1058:A4 *1101:A2 0.000261468
6 *1081:B *1075:B2 0.00018624
7 *1081:B *1286:A 0.000792432
8 *1081:B *313:19 0.000182605
9 *162:18 *261:8 5.71755e-05
10 *162:18 *313:19 0.0001254
11 *1055:A *162:18 9.25014e-06
12 *1074:D1 *1081:B 4.63699e-05
13 *1075:A2 *1081:B 9.31595e-05
14 *1075:A2 *162:18 0.00020561
15 *155:55 *1058:A4 0
16 *156:93 *162:18 5.73431e-05
17 *157:27 *1058:A4 7.7591e-05
18 *157:27 *1081:B 1.23511e-05
19 *157:50 *162:18 9.25014e-06
*RES
1 *1055:Y *162:18 22.7107 
2 *162:18 *1081:B 29.9607 
3 *162:18 *1058:A4 23.9429 
*END

*D_NET *163 0.00402038
*CONN
*I *1159:A2 I *D sky130_fd_sc_hd__a41o_1
*I *1057:B1 I *D sky130_fd_sc_hd__a31oi_1
*I *1056:Y O *D sky130_fd_sc_hd__inv_2
*CAP
1 *1159:A2 0.000107158
2 *1057:B1 0.00114333
3 *1056:Y 0.000105722
4 *163:8 0.00135621
5 *1057:B1 *1057:A1 6.62757e-06
6 *1057:B1 *1058:B1 1.04327e-05
7 *1057:B1 *1101:A2 0
8 *1057:B1 *1162:A 1.03196e-05
9 *1057:B1 *1299:A 0.000247057
10 *1057:B1 *193:33 0
11 *1057:B1 *236:14 1.99461e-05
12 *1057:B1 *355:10 4.56594e-05
13 *1057:B1 *355:25 0.000304877
14 *1057:B1 *359:16 0
15 *1159:A2 *354:80 0
16 *1159:A2 *355:25 4.96435e-05
17 *1057:A2 *1057:B1 3.17898e-05
18 *1158:A3 *163:8 3.56005e-05
19 *1159:A3 *1159:A2 0
20 *1159:A4 *1159:A2 0.000100831
21 *1165:B2 *1057:B1 6.86176e-05
22 *1266:RESET_B *1057:B1 0.000192488
23 *1270:RESET_B *1057:B1 0.00017309
24 *133:90 *1057:B1 0
25 *155:55 *1057:B1 5.01876e-06
26 *155:125 *1057:B1 0
27 *156:24 *1057:B1 5.97144e-06
28 *156:51 *1057:B1 0
29 *159:50 *1057:B1 0
*RES
1 *1056:Y *163:8 15.1571 
2 *163:8 *1057:B1 37.5054 
3 *163:8 *1159:A2 16.3536 
*END

*D_NET *164 0.0017349
*CONN
*I *1058:B1 I *D sky130_fd_sc_hd__a41o_1
*I *1057:Y O *D sky130_fd_sc_hd__a31oi_1
*CAP
1 *1058:B1 0.000470164
2 *1057:Y 0.000470164
3 *1058:B1 *1057:A1 2.7348e-05
4 *1058:B1 *1058:A1 5.33005e-05
5 *1058:B1 *1058:A2 4.87953e-05
6 *1058:B1 *1162:B 1.59373e-05
7 *1058:B1 *271:76 2.14658e-05
8 *1058:B1 *271:93 7.6644e-05
9 *1058:B1 *293:101 0.000220208
10 *1057:B1 *1058:B1 1.04327e-05
11 *156:16 *1058:B1 8.17274e-05
12 *156:18 *1058:B1 0.000163455
13 *156:24 *1058:B1 5.49489e-05
14 *156:93 *1058:B1 2.03079e-05
*RES
1 *1057:Y *1058:B1 35.2429 
*END

*D_NET *165 0.00647954
*CONN
*I *1325:A I *D sky130_fd_sc_hd__buf_2
*I *1060:S I *D sky130_fd_sc_hd__mux2_1
*I *1062:S I *D sky130_fd_sc_hd__mux2_1
*I *1059:Y O *D sky130_fd_sc_hd__nor3b_2
*CAP
1 *1325:A 0.000224071
2 *1060:S 0
3 *1062:S 0.000306551
4 *1059:Y 0.000203393
5 *165:28 0.00124835
6 *165:8 0.00136926
7 *1062:S *249:33 0
8 *1062:S *265:37 0
9 *1325:A *1075:A1 0.00031641
10 *1325:A *1086:A1 0
11 *1325:A *176:21 5.37741e-06
12 *1325:A *176:38 7.40411e-05
13 *165:8 *1084:A 2.58997e-05
14 *165:8 *176:38 0
15 *165:8 *251:55 0
16 *165:8 *293:46 0
17 *165:8 *293:86 5.10822e-05
18 *165:8 *357:25 3.2534e-05
19 *165:8 *357:31 3.79104e-05
20 *165:28 *1060:A1 0.000272371
21 *165:28 *1082:A1 9.76181e-05
22 *165:28 *1082:A3 9.60939e-05
23 *165:28 *1083:B 0.000607042
24 *165:28 *1084:A 1.02504e-05
25 *165:28 *1086:A1 7.98077e-05
26 *165:28 *248:20 0.000574427
27 *165:28 *249:33 0
28 *165:28 *250:18 0
29 *165:28 *301:23 0.000316416
30 odata[6] *1062:S 0
31 *1085:A1 *165:28 9.25014e-06
32 *133:34 *165:28 0.000521376
*RES
1 *1059:Y *165:8 18.175 
2 *165:8 *165:28 39.7321 
3 *165:28 *1062:S 23.2821 
4 *165:28 *1060:S 9.3 
5 *165:8 *1325:A 28.05 
*END

*D_NET *166 0.000157408
*CONN
*I *1302:A I *D sky130_fd_sc_hd__dlygate4sd3_1
*I *1060:X O *D sky130_fd_sc_hd__mux2_1
*CAP
1 *1302:A 7.87039e-05
2 *1060:X 7.87039e-05
3 *1302:A *1060:A0 0
*RES
1 *1060:X *1302:A 19.975 
*END

*D_NET *167 0.000355939
*CONN
*I *1063:A I *D sky130_fd_sc_hd__clkbuf_1
*I *1062:X O *D sky130_fd_sc_hd__mux2_1
*CAP
1 *1063:A 0.000121239
2 *1062:X 0.000121239
3 *1063:A *1340:A 3.18676e-05
4 odata[6] *1063:A 8.15939e-05
*RES
1 *1062:X *1063:A 30.0821 
*END

*D_NET *168 0.000448359
*CONN
*I *1065:A I *D sky130_fd_sc_hd__clkbuf_1
*I *1064:X O *D sky130_fd_sc_hd__mux2_1
*CAP
1 *1065:A 0.000101009
2 *1064:X 0.000101009
3 *1065:A *1064:A0 0.000146374
4 *1065:A *300:12 3.1367e-05
5 *1261:D *1065:A 6.85998e-05
*RES
1 *1064:X *1065:A 21.9214 
*END

*D_NET *169 0.000434824
*CONN
*I *1067:A I *D sky130_fd_sc_hd__clkbuf_1
*I *1066:X O *D sky130_fd_sc_hd__mux2_1
*CAP
1 *1067:A 9.81231e-05
2 *1066:X 9.81231e-05
3 *1067:A *1064:A1 0.000103267
4 *1067:A *1064:S 5.52302e-05
5 *1067:A *1337:A 0
6 *1260:D *1067:A 8.00806e-05
*RES
1 *1066:X *1067:A 30.0821 
*END

*D_NET *170 0.000653329
*CONN
*I *1069:A I *D sky130_fd_sc_hd__clkbuf_1
*I *1068:X O *D sky130_fd_sc_hd__mux2_1
*CAP
1 *1069:A 0.000187055
2 *1068:X 0.000187055
3 *1069:A *1068:A0 5.33334e-05
4 *1069:A *1213:A 9.8742e-05
5 *1069:A *1214:A 1.02504e-05
6 *1069:A *250:146 6.81083e-05
7 *1069:A *251:114 4.87854e-05
8 *1069:A *313:41 0
*RES
1 *1068:X *1069:A 31.2607 
*END

*D_NET *171 0.000978309
*CONN
*I *1071:A I *D sky130_fd_sc_hd__clkbuf_1
*I *1070:X O *D sky130_fd_sc_hd__mux2_1
*CAP
1 *1071:A 0.000293827
2 *1070:X 0.000293827
3 *1071:A *1215:B 8.49318e-05
4 *1071:A *251:80 0.000140361
5 *1071:A *251:82 0.000119618
6 *1258:D *1071:A 4.57445e-05
*RES
1 *1070:X *1071:A 33.3321 
*END

*D_NET *172 0.000327544
*CONN
*I *1073:A I *D sky130_fd_sc_hd__clkbuf_1
*I *1072:X O *D sky130_fd_sc_hd__mux2_1
*CAP
1 *1073:A 9.19466e-05
2 *1072:X 9.19466e-05
3 *1073:A *250:133 0.000143651
*RES
1 *1072:X *1073:A 20.6893 
*END

*D_NET *173 0.000882849
*CONN
*I *1075:B2 I *D sky130_fd_sc_hd__a32o_1
*I *1074:X O *D sky130_fd_sc_hd__o2111a_1
*CAP
1 *1075:B2 0.000286693
2 *1074:X 0.000286693
3 *1075:B2 *1074:A2 7.83587e-05
4 *1075:B2 *1286:A 4.48647e-05
5 *1075:B2 *274:44 0
6 *1081:B *1075:B2 0.00018624
*RES
1 *1074:X *1075:B2 31.8321 
*END

*D_NET *174 0.00459122
*CONN
*I *1081:C_N I *D sky130_fd_sc_hd__or3b_1
*I *1079:A3 I *D sky130_fd_sc_hd__a31o_1
*I *1076:B I *D sky130_fd_sc_hd__nand2_1
*I *1085:A2 I *D sky130_fd_sc_hd__a21o_1
*I *1082:A3 I *D sky130_fd_sc_hd__a31o_1
*I *1075:X O *D sky130_fd_sc_hd__a32o_1
*CAP
1 *1081:C_N 3.42735e-05
2 *1079:A3 2.44295e-05
3 *1076:B 0.000417501
4 *1085:A2 1.47893e-05
5 *1082:A3 0.000137958
6 *1075:X 4.4109e-05
7 *174:32 0.000520809
8 *174:30 0.000196103
9 *174:8 0.000294633
10 *174:6 0.000268945
11 *1076:B *1078:A1 1.74352e-05
12 *1076:B *1078:A2 0.000184745
13 *1076:B *274:19 0
14 *1076:B *274:32 0
15 *1081:C_N *1286:A 0.000183713
16 *1082:A3 *1082:B1 0.000153429
17 *1082:A3 *1085:B1 8.86182e-05
18 *1082:A3 *273:38 6.79191e-05
19 *1085:A2 *1085:B1 6.83034e-06
20 *174:6 *313:6 8.36572e-05
21 *174:8 *1085:B1 7.57312e-05
22 *174:8 *273:38 6.09319e-05
23 *174:8 *313:6 0.000266473
24 *174:30 *274:44 0.000171369
25 *174:32 *274:32 0
26 *174:32 *274:44 4.46186e-06
27 *1079:A1 *1079:A3 2.89114e-05
28 *1082:A2 *1082:A3 4.72818e-05
29 *1085:A1 *1082:A3 8.4835e-05
30 *1086:B2 *1076:B 0.000187081
31 *155:10 *1076:B 8.00806e-05
32 *155:10 *174:30 0.000179562
33 *155:10 *174:32 0.000165262
34 *155:18 *1076:B 0.00010294
35 *161:39 *1079:A3 1.33343e-05
36 *161:39 *1081:C_N 0.000183713
37 *161:39 *174:32 0.00010326
38 *165:28 *1082:A3 9.60939e-05
*RES
1 *1075:X *174:6 10.2464 
2 *174:6 *174:8 3.82143 
3 *174:8 *1082:A3 14.0857 
4 *174:8 *1085:A2 9.72857 
5 *174:6 *174:30 7.05357 
6 *174:30 *174:32 2.25 
7 *174:32 *1076:B 22.7821 
8 *174:32 *1079:A3 14.3357 
9 *174:30 *1081:C_N 15.5679 
*END

*D_NET *175 0.00111454
*CONN
*I *1080:A2 I *D sky130_fd_sc_hd__o31a_1
*I *1086:A2 I *D sky130_fd_sc_hd__o221ai_1
*I *1076:Y O *D sky130_fd_sc_hd__nand2_1
*CAP
1 *1080:A2 0.000163322
2 *1086:A2 3.34103e-05
3 *1076:Y 5.77931e-05
4 *175:10 0.000254526
5 *1080:A2 *1080:A1 0.000230155
6 *1080:A2 *179:14 9.90431e-05
7 *1080:A2 *272:14 1.34548e-05
8 *1080:A2 *273:6 8.57166e-06
9 *1086:A2 *179:14 5.33005e-05
10 *175:10 *1078:A2 0
11 *1076:A *175:10 0.00010326
12 *1256:D *1080:A2 9.77072e-05
13 *1256:D *175:10 0
*RES
1 *1076:Y *175:10 19.6393 
2 *175:10 *1086:A2 9.83571 
3 *175:10 *1080:A2 13.1214 
*END

*D_NET *176 0.00477795
*CONN
*I *1163:C I *D sky130_fd_sc_hd__or4_1
*I *1110:A3 I *D sky130_fd_sc_hd__o311a_1
*I *1085:B1 I *D sky130_fd_sc_hd__a21o_1
*I *1078:A2 I *D sky130_fd_sc_hd__a21oi_1
*I *1077:Y O *D sky130_fd_sc_hd__inv_2
*CAP
1 *1163:C 9.32534e-05
2 *1110:A3 0
3 *1085:B1 0.000137179
4 *1078:A2 0.000219075
5 *1077:Y 0.000159362
6 *176:38 0.000389721
7 *176:21 0.000696467
8 *176:8 0.000641258
9 *1078:A2 *1080:A3 8.00806e-05
10 *1078:A2 *1081:A 1.41642e-05
11 *1078:A2 *179:14 0
12 *1078:A2 *272:14 0
13 *1163:C *1110:A1 0.000228136
14 *1163:C *1111:A2 2.28499e-05
15 *1163:C *1163:B 0.000229783
16 *1163:C *250:75 4.89698e-05
17 *176:8 *1077:A 9.83388e-05
18 *176:8 *1080:A1 1.59373e-05
19 *176:8 *272:14 9.66977e-05
20 *176:21 *1081:A 5.52302e-05
21 *176:21 *1086:A1 0
22 *176:21 *273:23 0
23 *176:21 *273:42 7.53309e-05
24 *176:38 *1163:B 1.17968e-05
25 *176:38 *273:42 0.000551257
26 *1076:B *1078:A2 0.000184745
27 *1082:A3 *1085:B1 8.86182e-05
28 *1085:A1 *1085:B1 9.99853e-05
29 *1085:A2 *1085:B1 6.83034e-06
30 *1086:B2 *1078:A2 5.71472e-05
31 *1110:C1 *176:38 3.43995e-05
32 *1256:D *1078:A2 0.000143341
33 *1325:A *176:21 5.37741e-06
34 *1325:A *176:38 7.40411e-05
35 *155:10 *1078:A2 0
36 *155:10 *176:21 0
37 *155:18 *1078:A2 0.00014285
38 *165:8 *176:38 0
39 *174:8 *1085:B1 7.57312e-05
40 *175:10 *1078:A2 0
*RES
1 *1077:Y *176:8 15.9786 
2 *176:8 *1078:A2 19.0321 
3 *176:8 *176:21 4.375 
4 *176:21 *1085:B1 17.2464 
5 *176:21 *176:38 11.9107 
6 *176:38 *1110:A3 9.3 
7 *176:38 *1163:C 12.7107 
*END

*D_NET *177 0.000260386
*CONN
*I *1080:A3 I *D sky130_fd_sc_hd__o31a_1
*I *1078:Y O *D sky130_fd_sc_hd__a21oi_1
*CAP
1 *1080:A3 6.82943e-05
2 *1078:Y 6.82943e-05
3 *1080:A3 *1080:A1 5.38444e-06
4 *1080:A3 *1080:B1 1.04232e-05
5 *1080:A3 *272:14 2.79092e-05
6 *1078:A2 *1080:A3 8.00806e-05
7 *1079:A1 *1080:A3 0
*RES
1 *1078:Y *1080:A3 29.3679 
*END

*D_NET *178 0.000266264
*CONN
*I *1080:B1 I *D sky130_fd_sc_hd__o31a_1
*I *1079:X O *D sky130_fd_sc_hd__a31o_1
*CAP
1 *1080:B1 8.80053e-05
2 *1079:X 8.80053e-05
3 *1080:B1 *1080:A1 8.29398e-06
4 *1080:B1 *272:14 5.90995e-05
5 *1079:A1 *1080:B1 1.24368e-05
6 *1080:A3 *1080:B1 1.04232e-05
*RES
1 *1079:X *1080:B1 20.3857 
*END

*D_NET *179 0.00292673
*CONN
*I *1086:B1 I *D sky130_fd_sc_hd__o221ai_1
*I *1083:A I *D sky130_fd_sc_hd__xnor2_1
*I *1081:X O *D sky130_fd_sc_hd__or3b_1
*CAP
1 *1086:B1 2.03441e-05
2 *1083:A 0.00070602
3 *1081:X 0.000296919
4 *179:14 0.00102328
5 *1083:A *1086:C1 5.03772e-05
6 *1083:A *248:20 0
7 *1083:A *249:33 5.57727e-05
8 *1083:A *273:6 0.000135714
9 *1086:B1 *1080:A1 0
10 *1086:B1 *1086:C1 5.7661e-06
11 *179:14 *1081:A 0
12 *179:14 *1086:C1 0.000242563
13 *179:14 *273:6 1.39726e-05
14 *179:14 *273:23 7.6644e-05
15 *1076:A *179:14 7.80714e-06
16 *1078:A2 *179:14 0
17 *1080:A2 *179:14 9.90431e-05
18 *1086:A2 *179:14 5.33005e-05
19 *161:39 *179:14 0.000139208
*RES
1 *1081:X *179:14 24.1929 
2 *179:14 *1083:A 29.4429 
3 *179:14 *1086:B1 9.72857 
*END

*D_NET *180 0.00223103
*CONN
*I *1083:B I *D sky130_fd_sc_hd__xnor2_1
*I *1082:X O *D sky130_fd_sc_hd__a31o_1
*CAP
1 *1083:B 0.000811992
2 *1082:X 0.000811992
3 *1083:B *250:18 0
4 *165:28 *1083:B 0.000607042
*RES
1 *1082:X *1083:B 41.3321 
*END

*D_NET *181 0.00735544
*CONN
*I *1091:A2 I *D sky130_fd_sc_hd__o21ai_1
*I *1086:A1 I *D sky130_fd_sc_hd__o221ai_1
*I *1084:Y O *D sky130_fd_sc_hd__nand2_1
*CAP
1 *1091:A2 0.00204027
2 *1086:A1 0.000248332
3 *1084:Y 7.4368e-05
4 *181:6 0.00236297
5 *1086:A1 *1086:C1 0.000316887
6 *1086:A1 *273:23 6.20091e-06
7 *1091:A2 *1075:A1 0.000912308
8 *1091:A2 *1264:CLK 0.000113295
9 *1091:A2 *1349:A 4.47937e-05
10 *1091:A2 *266:53 4.98055e-06
11 *1091:A2 *266:61 0.000273812
12 *1091:A2 *271:72 0.000166977
13 *1091:A2 *354:10 2.89016e-05
14 *181:6 *1075:A1 9.60875e-05
15 *1010:A *1091:A2 9.25014e-06
16 *1076:A *1086:A1 0.00012501
17 *1085:A1 *1086:A1 9.95103e-05
18 *1325:A *1086:A1 0
19 *136:10 *1091:A2 0.00014955
20 *161:50 *1086:A1 0.000202128
21 *165:28 *1086:A1 7.98077e-05
22 *176:21 *1086:A1 0
*RES
1 *1084:Y *181:6 10.2464 
2 *181:6 *1086:A1 24.8 
3 *181:6 *1091:A2 46.5321 
*END

*D_NET *182 0.0015304
*CONN
*I *1086:C1 I *D sky130_fd_sc_hd__o221ai_1
*I *1085:X O *D sky130_fd_sc_hd__a21o_1
*CAP
1 *1086:C1 0.000243954
2 *1085:X 0.000243954
3 *1086:C1 *1080:A1 1.97695e-05
4 *1086:C1 *273:6 0.000307343
5 *1086:C1 *273:23 9.9784e-05
6 *1083:A *1086:C1 5.03772e-05
7 *1086:A1 *1086:C1 0.000316887
8 *1086:B1 *1086:C1 5.7661e-06
9 *179:14 *1086:C1 0.000242563
*RES
1 *1085:X *1086:C1 35.5286 
*END

*D_NET *183 0.0013265
*CONN
*I *1088:S I *D sky130_fd_sc_hd__mux2_1
*I *1087:X O *D sky130_fd_sc_hd__or4b_1
*CAP
1 *1088:S 0.0003839
2 *1087:X 0.0003839
3 *1088:S *1088:A1 9.71197e-05
4 *1088:S *1157:B1 0.000101545
5 *1088:S *1253:CLK 0.000262719
6 *1088:S *1349:A 0
7 *1088:S *293:118 1.55885e-05
8 *1088:S *310:12 0
9 *1088:S *356:10 8.17274e-05
*RES
1 *1087:X *1088:S 36.4036 
*END

*D_NET *184 0.000253341
*CONN
*I *1089:A I *D sky130_fd_sc_hd__clkbuf_1
*I *1088:X O *D sky130_fd_sc_hd__mux2_1
*CAP
1 *1089:A 8.19769e-05
2 *1088:X 8.19769e-05
3 *1089:A *1157:B1 5.01117e-05
4 *1089:A *310:12 0
5 *1253:D *1089:A 3.92757e-05
*RES
1 *1088:X *1089:A 29.2429 
*END

*D_NET *185 0.00122383
*CONN
*I *1091:B1 I *D sky130_fd_sc_hd__o21ai_1
*I *1090:Y O *D sky130_fd_sc_hd__o21ai_1
*CAP
1 *1091:B1 0.000355377
2 *1090:Y 0.000355377
3 *1091:B1 *1087:A 7.83659e-05
4 *1091:B1 *1090:B1 5.30637e-06
5 *1091:B1 *1253:CLK 0.000113385
6 *1091:B1 *266:81 3.39401e-05
7 *1091:B1 *270:92 0.000135028
8 *1091:B1 *271:72 7.98104e-05
9 *1090:A1 *1091:B1 4.51726e-05
10 *136:29 *1091:B1 1.32552e-05
11 *136:42 *1091:B1 8.81471e-06
*RES
1 *1090:Y *1091:B1 33.3679 
*END

*D_NET *186 0.0138733
*CONN
*I *1099:A I *D sky130_fd_sc_hd__inv_2
*I *1121:B1 I *D sky130_fd_sc_hd__a31o_1
*I *1131:A I *D sky130_fd_sc_hd__nor2_1
*I *1136:B1 I *D sky130_fd_sc_hd__a31o_1
*I *1132:A2 I *D sky130_fd_sc_hd__a22o_1
*I *1114:A I *D sky130_fd_sc_hd__clkbuf_4
*I *1126:B1 I *D sky130_fd_sc_hd__a21oi_1
*I *1127:A2 I *D sky130_fd_sc_hd__a22o_1
*I *1093:C I *D sky130_fd_sc_hd__or3_2
*I *1111:A1 I *D sky130_fd_sc_hd__o21a_4
*I *1092:X O *D sky130_fd_sc_hd__clkbuf_4
*CAP
1 *1099:A 0.000194049
2 *1121:B1 0
3 *1131:A 3.41891e-05
4 *1136:B1 0.000119453
5 *1132:A2 8.26186e-05
6 *1114:A 0.000394355
7 *1126:B1 0.000200363
8 *1127:A2 3.03378e-05
9 *1093:C 0
10 *1111:A1 0.000141124
11 *1092:X 0.000201007
12 *186:130 0.000556602
13 *186:84 0.000948898
14 *186:80 0.00073582
15 *186:76 0.000402903
16 *186:57 0.000497047
17 *186:44 0.000461366
18 *186:40 0.00117688
19 *186:22 0.00101985
20 *186:10 0.00153544
21 *1099:A *1164:A1 7.43578e-06
22 *1099:A *203:20 9.53124e-05
23 *1099:A *246:8 2.89016e-05
24 *1099:A *246:24 6.71657e-05
25 *1099:A *247:22 9.90431e-05
26 *1099:A *257:14 9.90431e-05
27 *1111:A1 *1100:B 5.59013e-05
28 *1111:A1 *1111:A2 1.99099e-05
29 *1111:A1 *1164:B1 0.000329101
30 *1111:A1 *237:10 8.49318e-05
31 *1114:A *203:6 1.21084e-05
32 *1114:A *203:10 5.66392e-05
33 *1126:B1 *1126:A2 2.14314e-05
34 *1126:B1 *1127:B2 0.00014285
35 *1126:B1 *1140:A 0
36 *1126:B1 *197:18 0.000222953
37 *1126:B1 *257:88 1.3701e-05
38 *1126:B1 *257:90 9.02133e-05
39 *1127:A2 *1127:A1 5.52302e-05
40 *1127:A2 *1127:B2 1.3701e-05
41 *1127:A2 *352:12 2.89114e-05
42 *1131:A *1140:A 8.76257e-05
43 *1132:A2 *1130:B1 5.33005e-05
44 *1132:A2 *246:75 7.6644e-05
45 *1132:A2 *246:85 2.59355e-05
46 *1132:A2 *246:105 5.66157e-05
47 *1132:A2 *247:75 6.19181e-05
48 *1136:B1 *1136:A1 9.83388e-05
49 *1136:B1 *253:69 5.20669e-05
50 *1136:B1 *254:28 2.34204e-05
51 *1136:B1 *254:71 1.09026e-05
52 *1136:B1 *255:32 4.46186e-06
53 *186:10 *1198:A 0
54 *186:10 *360:10 0
55 *186:10 *360:12 1.60719e-05
56 *186:10 *360:18 1.15281e-05
57 *186:22 *1198:B 0
58 *186:22 *357:77 9.56233e-05
59 *186:22 *357:88 0.000118262
60 *186:22 *359:40 8.25843e-06
61 *186:40 *201:20 0.000125908
62 *186:40 *201:40 4.75908e-05
63 *186:40 *257:26 0
64 *186:40 *258:8 0
65 *186:40 *360:10 0
66 *186:44 *1122:B2 0
67 *186:44 *1129:A 7.73758e-05
68 *186:44 *1245:CLK 0
69 *186:44 *201:40 8.07879e-05
70 *186:44 *201:53 0.000579309
71 *186:44 *203:32 4.15914e-05
72 *186:44 *257:26 0
73 *186:57 *1128:A1 0.000127446
74 *186:57 *1129:A 2.49484e-05
75 *186:57 *201:53 0.000164561
76 *186:57 *201:66 1.02504e-05
77 *186:76 *1128:A1 1.02504e-05
78 *186:76 *1140:A 0.000316416
79 *186:76 *1171:A1 0
80 *186:76 *201:66 0.00018459
81 *186:76 *254:30 0
82 *186:80 *201:66 0
83 *186:80 *254:28 0.000103739
84 *186:130 *1121:A1 0.000178593
85 *186:130 *1122:A1_N 6.05161e-06
86 *186:130 *1122:A2_N 0.000228188
87 *186:130 *197:55 7.49387e-06
88 *186:130 *246:24 0
89 *186:130 *257:14 1.02821e-05
90 *186:130 *257:18 1.54142e-05
91 *1110:C1 *1111:A1 0.00011644
92 *1110:C1 *186:22 0.000139913
93 *1184:A *1099:A 5.33005e-05
94 *1226:A *186:22 5.52302e-05
95 *1246:D *186:40 0
96 *1246:RESET_B *186:40 0
97 *1271:RESET_B *186:22 2.89016e-05
98 *131:14 *186:10 6.05161e-06
99 *131:76 *186:40 0
100 *159:8 *186:22 5.49489e-05
*RES
1 *1092:X *186:10 16.6929 
2 *186:10 *186:22 19.8929 
3 *186:22 *1111:A1 23.5857 
4 *186:22 *1093:C 9.3 
5 *186:10 *186:40 8.92857 
6 *186:40 *186:44 8.85714 
7 *186:44 *1127:A2 14.7643 
8 *186:44 *186:57 2.25 
9 *186:57 *1126:B1 18.7821 
10 *186:57 *186:76 10.0536 
11 *186:76 *186:80 7.96429 
12 *186:80 *186:84 9.55357 
13 *186:84 *1114:A 15.1929 
14 *186:84 *1132:A2 20.4786 
15 *186:80 *1136:B1 16.3893 
16 *186:76 *1131:A 10.2464 
17 *186:40 *186:130 9.875 
18 *186:130 *1121:B1 9.3 
19 *186:130 *1099:A 14.3714 
*END

*D_NET *187 0.00698983
*CONN
*I *1156:C1 I *D sky130_fd_sc_hd__o211a_1
*I *1102:B I *D sky130_fd_sc_hd__xor2_1
*I *1094:A2 I *D sky130_fd_sc_hd__a21bo_1
*I *1093:X O *D sky130_fd_sc_hd__or3_2
*CAP
1 *1156:C1 4.93154e-05
2 *1102:B 6.45297e-05
3 *1094:A2 0.000109686
4 *1093:X 0.00123682
5 *187:14 0.0010763
6 *187:10 0.00218822
7 *1094:A2 *270:28 1.39841e-05
8 *1156:C1 *354:25 0.000146732
9 *187:10 *1052:A1 4.27338e-05
10 *187:10 *1052:B2 2.84026e-05
11 *187:10 *1154:A1 7.252e-05
12 *187:10 *305:16 7.80417e-05
13 *187:10 *354:59 0
14 *187:14 *1154:A1 6.42242e-05
15 *187:14 *1218:B 8.23597e-06
16 *187:14 *1349:A 0
17 *187:14 *250:91 0
18 *187:14 *266:10 9.4724e-05
19 *187:14 *266:12 5.59013e-05
20 *187:14 *270:24 9.73841e-05
21 *187:14 *305:28 0
22 *187:14 *354:10 0
23 *187:14 *354:21 0
24 *187:14 *354:59 0
25 *1052:B1 *187:10 7.11733e-06
26 *1102:A *1094:A2 0.000446597
27 *1102:A *1102:B 0.000139208
28 *1153:A2 *187:10 5.33005e-05
29 *1153:A3 *187:10 0.000216755
30 *1250:D *1094:A2 0.000357054
31 *1264:RESET_B *187:14 6.26466e-05
32 *155:104 *187:10 7.49387e-06
33 *156:14 *187:14 0
34 *159:71 *1156:C1 0.000271904
*RES
1 *1093:X *187:10 29.0143 
2 *187:10 *187:14 21.625 
3 *187:14 *1094:A2 13.9429 
4 *187:14 *1102:B 10.6571 
5 *187:10 *1156:C1 16.3893 
*END

*D_NET *188 0.00186544
*CONN
*I *1101:B1 I *D sky130_fd_sc_hd__o21ai_1
*I *1097:A I *D sky130_fd_sc_hd__xnor2_1
*I *1094:X O *D sky130_fd_sc_hd__a21bo_1
*CAP
1 *1101:B1 2.14489e-05
2 *1097:A 0.000561687
3 *1094:X 3.92213e-05
4 *188:8 0.000622358
5 *1097:A *1006:A 0
6 *1097:A *1096:A 0.000123295
7 *1097:A *1097:B 7.13446e-05
8 *1097:A *270:32 0.000107431
9 *1097:A *305:28 0
10 *1101:B1 *270:32 1.88048e-05
11 *1250:D *188:8 5.52302e-05
12 *133:14 *1097:A 2.79092e-05
13 *157:27 *1097:A 0.000190588
14 *157:27 *1101:B1 2.61189e-05
*RES
1 *1094:X *188:8 14.3357 
2 *188:8 *1097:A 25.425 
3 *188:8 *1101:B1 14.5321 
*END

*D_NET *189 0.000399566
*CONN
*I *1096:A I *D sky130_fd_sc_hd__and2_1
*I *1095:X O *D sky130_fd_sc_hd__or2_1
*CAP
1 *1096:A 7.45417e-05
2 *1095:X 7.45417e-05
3 *1096:A *249:89 5.49489e-05
4 *1096:B *1096:A 3.08366e-05
5 *1097:A *1096:A 0.000123295
6 *133:14 *1096:A 3.13687e-05
7 *157:27 *1096:A 1.00332e-05
*RES
1 *1095:X *1096:A 29.7786 
*END

*D_NET *190 0.000713675
*CONN
*I *1097:B I *D sky130_fd_sc_hd__xnor2_1
*I *1096:X O *D sky130_fd_sc_hd__and2_1
*CAP
1 *1097:B 0.000227463
2 *1096:X 0.000227463
3 *1097:B *274:8 0
4 *1097:A *1097:B 7.13446e-05
5 *1251:D *1097:B 3.41517e-06
6 *133:14 *1097:B 0.000183989
*RES
1 *1096:X *1097:B 31.4393 
*END

*D_NET *191 0.0026328
*CONN
*I *1165:A1_N I *D sky130_fd_sc_hd__a2bb2o_1
*I *1100:B I *D sky130_fd_sc_hd__and3_2
*I *1098:Y O *D sky130_fd_sc_hd__inv_2
*CAP
1 *1165:A1_N 0.00028505
2 *1100:B 0.000204743
3 *1098:Y 5.28263e-05
4 *191:6 0.000542619
5 *1100:B *1100:C 0.0001164
6 *1100:B *1164:B1 1.81709e-05
7 *1100:B *1271:CLK 6.05161e-06
8 *1165:A1_N *1093:B 4.18895e-05
9 *1165:A1_N *1160:A2 0
10 *1165:A1_N *1164:B1 0.000271958
11 *1165:A1_N *1165:A2_N 5.49544e-05
12 *1165:A1_N *237:10 5.7616e-05
13 *1165:A1_N *357:88 0.000136958
14 *191:6 *1093:B 0.000268184
15 *191:6 *357:77 9.99853e-05
16 *191:6 *357:88 0.00016729
17 *1110:C1 *1100:B 0.000129448
18 *1111:A1 *1100:B 5.59013e-05
19 *1266:RESET_B *1165:A1_N 0
20 *154:53 *1100:B 0.000122754
*RES
1 *1098:Y *191:6 11.8893 
2 *191:6 *1100:B 23.0143 
3 *191:6 *1165:A1_N 24.6929 
*END

*D_NET *192 0.00863226
*CONN
*I *1179:A2 I *D sky130_fd_sc_hd__a21bo_1
*I *1140:B I *D sky130_fd_sc_hd__nand2_1
*I *1145:S I *D sky130_fd_sc_hd__mux2_1
*I *1170:A2 I *D sky130_fd_sc_hd__o21ai_1
*I *1160:B2 I *D sky130_fd_sc_hd__o32a_1
*I *1100:C I *D sky130_fd_sc_hd__and3_2
*I *1099:Y O *D sky130_fd_sc_hd__inv_2
*CAP
1 *1179:A2 0.000512205
2 *1140:B 0
3 *1145:S 0.000106567
4 *1170:A2 0
5 *1160:B2 3.18207e-05
6 *1100:C 0.000190081
7 *1099:Y 0
8 *192:60 0.000202127
9 *192:56 0.000519975
10 *192:48 0.00210715
11 *192:16 0.000714422
12 *192:6 0.00166305
13 *1100:C *1271:CLK 0.000161415
14 *1145:S *1145:A1 5.33005e-05
15 *1145:S *1170:A1 8.33813e-05
16 *1145:S *1170:B1 5.38444e-06
17 *1145:S *1328:A 1.59373e-05
18 *1160:B2 *1160:A2 5.52238e-05
19 *1160:B2 *1160:A3 6.17796e-06
20 *1179:A2 *1179:A1 7.17136e-05
21 *1179:A2 *1179:B1_N 5.52302e-05
22 *192:16 *1149:S 7.6644e-05
23 *192:16 *1164:B1 1.81709e-05
24 *192:16 *1271:CLK 7.34455e-06
25 *192:16 *201:14 0.00010326
26 *192:16 *203:18 9.25014e-06
27 *192:16 *247:10 3.0285e-05
28 *192:16 *247:64 3.06406e-05
29 *192:16 *359:16 2.49484e-05
30 *192:16 *359:26 0.000234359
31 *192:48 *1129:A 5.50313e-05
32 *192:48 *1195:B 2.89016e-05
33 *192:48 *203:18 0.000284172
34 *192:48 *267:23 0
35 *192:48 *359:16 4.15914e-05
36 *192:56 *1127:B2 0
37 *192:56 *1140:A 0
38 *192:56 *1170:B1 1.32056e-05
39 *192:56 *1328:A 0
40 *192:56 *224:6 2.12005e-05
41 *192:60 *1140:A 1.8461e-05
42 *192:60 *1170:B1 5.09539e-05
43 *192:60 *1328:A 1.93106e-05
44 *1100:A *1100:C 3.4846e-06
45 *1100:B *1100:C 0.0001164
46 *1164:A2 *1160:B2 2.89016e-05
47 *1164:A2 *192:16 9.91086e-05
48 *1245:D *192:48 0.000139632
49 *1245:RESET_B *192:48 9.60875e-05
50 *133:75 *192:16 0.000392848
51 *154:53 *1100:C 0.000112226
52 *154:53 *192:16 1.02504e-05
53 *154:60 *1160:B2 1.04232e-05
*RES
1 *1099:Y *192:6 13.8 
2 *192:6 *192:16 18.5357 
3 *192:16 *1100:C 18.1571 
4 *192:16 *1160:B2 14.7643 
5 *192:6 *192:48 24.4107 
6 *192:48 *192:56 15.125 
7 *192:56 *192:60 2.08929 
8 *192:60 *1170:A2 9.3 
9 *192:60 *1145:S 11.4964 
10 *192:56 *1140:B 9.3 
11 *192:48 *1179:A2 17.4607 
*END

*D_NET *193 0.011948
*CONN
*I *1155:A2 I *D sky130_fd_sc_hd__a21o_1
*I *1152:A3 I *D sky130_fd_sc_hd__a31o_1
*I *1157:A2 I *D sky130_fd_sc_hd__a22o_1
*I *1101:A2 I *D sky130_fd_sc_hd__o21ai_1
*I *1100:X O *D sky130_fd_sc_hd__and3_2
*CAP
1 *1155:A2 1.32791e-05
2 *1152:A3 0.000397796
3 *1157:A2 0.000140231
4 *1101:A2 0.000792041
5 *1100:X 0.000590645
6 *193:50 0.000972386
7 *193:33 0.00141981
8 *193:14 0.00210095
9 *1101:A2 *1287:A 5.83233e-05
10 *1101:A2 *261:8 0.00149452
11 *1152:A3 *1152:A1 2.44318e-05
12 *1152:A3 *1152:A2 5.52302e-05
13 *1152:A3 *1152:B1 5.52238e-05
14 *1152:A3 *1155:A1 3.63587e-05
15 *1152:A3 *1155:B1 5.52238e-05
16 *1152:A3 *1284:A 0.000292715
17 *1152:A3 *268:6 8.03994e-06
18 *1152:A3 *268:56 7.62701e-05
19 *1152:A3 *361:25 2.94103e-05
20 *1152:A3 *361:40 0.000172528
21 *1155:A2 *1155:A1 2.7547e-05
22 *1155:A2 *268:6 1.18716e-05
23 *1157:A2 *1157:A1 1.97695e-05
24 *1157:A2 *1157:B1 5.52238e-05
25 *1157:A2 *310:12 3.5707e-05
26 *193:14 *355:8 5.17614e-05
27 *193:33 *1293:A 0.000140933
28 *193:33 *261:8 7.83659e-05
29 *193:33 *261:42 0.00022266
30 *193:33 *359:91 0.000109634
31 *193:50 *1284:A 0
32 *193:50 *268:10 0.000137931
33 *193:50 *268:14 0.000576894
34 *193:50 *310:10 5.03694e-05
35 *193:50 *310:12 6.8646e-06
36 *193:50 *354:59 0
37 *193:50 *354:80 0
38 *193:50 *361:12 5.26184e-05
39 *1045:C1 *1157:A2 0
40 *1055:A *1101:A2 1.5942e-05
41 *1057:A2 *1101:A2 2.06178e-05
42 *1057:B1 *1101:A2 0
43 *1057:B1 *193:33 0
44 *1058:A4 *1101:A2 0.000261468
45 *1236:D *1157:A2 0
46 *1236:D *193:50 0
47 *1236:RESET_B *193:50 2.72449e-05
48 *1250:D *1101:A2 7.43578e-06
49 *1266:RESET_B *193:14 2.29097e-05
50 *1301:A *1152:A3 0.000184745
51 *154:24 *193:14 0.000234063
52 *155:55 *1101:A2 0
53 *155:125 *193:33 1.17968e-05
54 *156:51 *1101:A2 0.000375033
55 *157:27 *1101:A2 0.00024414
56 *161:14 *1101:A2 0.000179032
*RES
1 *1100:X *193:14 23.8357 
2 *193:14 *1101:A2 36.925 
3 *193:14 *193:33 21.5536 
4 *193:33 *1157:A2 16.7107 
5 *193:33 *193:50 16.7679 
6 *193:50 *1152:A3 27.8536 
7 *193:50 *1155:A2 9.76875 
*END

*D_NET *194 0.000794687
*CONN
*I *1109:A1 I *D sky130_fd_sc_hd__mux2_1
*I *1104:B1_N I *D sky130_fd_sc_hd__a21bo_1
*I *1103:X O *D sky130_fd_sc_hd__or2b_1
*CAP
1 *1109:A1 0
2 *1104:B1_N 0.000112777
3 *1103:X 0.000165204
4 *194:8 0.000277981
5 *1104:B1_N *1103:B_N 0
6 *1104:B1_N *1105:A 0
7 *1104:B1_N *1109:S 0.000202842
8 *1104:B1_N *1112:A0 1.3142e-05
9 *194:8 *1109:S 2.27416e-05
10 *194:8 *1112:A1 0
*RES
1 *1103:X *194:8 11.4964 
2 *194:8 *1104:B1_N 21.1571 
3 *194:8 *1109:A1 9.3 
*END

*D_NET *195 0.000597887
*CONN
*I *1105:A I *D sky130_fd_sc_hd__buf_1
*I *1104:X O *D sky130_fd_sc_hd__a21bo_1
*CAP
1 *1105:A 0.000267754
2 *1104:X 0.000267754
3 *1105:A *1103:B_N 6.2379e-05
4 *1105:A *1109:A0 0
5 *1104:B1_N *1105:A 0
*RES
1 *1104:X *1105:A 32.3321 
*END

*D_NET *196 0.000499757
*CONN
*I *1107:A I *D sky130_fd_sc_hd__clkbuf_2
*I *1106:X O *D sky130_fd_sc_hd__and4_1
*CAP
1 *1107:A 4.22486e-05
2 *1106:X 4.22486e-05
3 *1107:A *1106:B 2.44318e-05
4 *1107:A *197:6 0.00014183
5 *1107:A *255:66 2.14658e-05
6 *1107:A *256:24 0.000227532
*RES
1 *1106:X *1107:A 20.7786 
*END

*D_NET *197 0.00987907
*CONN
*I *1131:B I *D sky130_fd_sc_hd__nor2_1
*I *1121:A3 I *D sky130_fd_sc_hd__a31o_1
*I *1108:D I *D sky130_fd_sc_hd__and4_1
*I *1115:A3 I *D sky130_fd_sc_hd__a31oi_1
*I *1120:A2 I *D sky130_fd_sc_hd__a21oi_1
*I *1126:A2 I *D sky130_fd_sc_hd__a21oi_1
*I *1125:B I *D sky130_fd_sc_hd__or2_1
*I *1107:X O *D sky130_fd_sc_hd__clkbuf_2
*CAP
1 *1131:B 0.000149729
2 *1121:A3 1.99857e-05
3 *1108:D 0
4 *1115:A3 7.10565e-05
5 *1120:A2 0.000508046
6 *1126:A2 7.02668e-05
7 *1125:B 0
8 *1107:X 0
9 *197:55 0.000510078
10 *197:53 0.000480283
11 *197:38 0.000907283
12 *197:18 0.000478309
13 *197:6 0.000822231
14 *197:4 0.000185956
15 *1115:A3 *1328:A 0.000147474
16 *1115:A3 *203:46 1.69115e-05
17 *1115:A3 *258:38 5.01213e-05
18 *1120:A2 *1121:A1 0
19 *1120:A2 *201:14 0.000272729
20 *1120:A2 *257:14 1.52978e-05
21 *1120:A2 *257:26 2.44318e-05
22 *1120:A2 *257:34 3.18676e-05
23 *1120:A2 *258:12 0.000439437
24 *1120:A2 *258:26 5.52302e-05
25 *1120:A2 *293:46 0
26 *1121:A3 *1122:A2_N 0
27 *1121:A3 *257:18 1.04232e-05
28 *1126:A2 *1126:A1 0.000162619
29 *1126:A2 *1140:A 6.20656e-05
30 *1131:B *1106:D 0
31 *1131:B *1132:B2 5.41609e-05
32 *1131:B *246:75 1.08359e-05
33 *1131:B *255:57 0.000126439
34 *1131:B *293:42 0.00019835
35 *197:6 *1106:B 0.000181796
36 *197:6 *256:24 1.5424e-05
37 *197:18 *1106:A 2.89016e-05
38 *197:18 *1106:B 0.000136951
39 *197:18 *1126:A1 3.3495e-05
40 *197:18 *1140:A 0
41 *197:18 *201:53 2.8266e-06
42 *197:18 *201:66 1.37292e-05
43 *197:18 *256:24 9.47028e-05
44 *197:18 *257:88 0.000116294
45 *197:18 *257:90 0.000367439
46 *197:38 *1106:D 3.34295e-05
47 *197:38 *1122:B2 0
48 *197:38 *1171:A1 0.000105047
49 *197:38 *1245:CLK 0
50 *197:38 *203:32 0
51 *197:38 *257:14 9.24299e-05
52 *197:38 *257:88 0.000263539
53 *197:38 *293:42 3.15739e-05
54 *197:53 *203:20 0.00014285
55 *197:53 *257:14 9.90367e-05
56 *197:53 *257:18 1.69961e-05
57 *197:55 *1108:A 9.77264e-06
58 *197:55 *1122:A1_N 4.27437e-05
59 *197:55 *1122:A2_N 6.34037e-05
60 *197:55 *1123:A1 0.000186662
61 *197:55 *1123:S 0.00014285
62 *197:55 *203:20 0.00017381
63 *197:55 *203:32 0.000142004
64 *197:55 *203:46 0.000139215
65 *197:55 *257:18 7.77751e-05
66 *197:55 *257:36 5.52238e-05
67 *197:55 *258:26 2.95641e-05
68 *197:55 *258:28 0.000623106
69 *1107:A *197:6 0.00014183
70 *1126:B1 *1126:A2 2.14314e-05
71 *1126:B1 *197:18 0.000222953
72 *1245:D *197:38 5.61376e-05
73 *131:76 *1120:A2 8.50152e-05
74 *186:130 *197:55 7.49387e-06
*RES
1 *1107:X *197:4 9.3 
2 *197:4 *197:6 1.76786 
3 *197:6 *197:18 18.625 
4 *197:18 *1125:B 9.3 
5 *197:18 *1126:A2 11.925 
6 *197:6 *197:38 14.3393 
7 *197:38 *1120:A2 24.4786 
8 *197:38 *197:53 5.85714 
9 *197:53 *197:55 12.8571 
10 *197:55 *1115:A3 20.2464 
11 *197:55 *1108:D 9.3 
12 *197:53 *1121:A3 9.72857 
13 *197:4 *1131:B 22.425 
*END

*D_NET *198 0.00285035
*CONN
*I *1117:A2 I *D sky130_fd_sc_hd__o31ai_1
*I *1109:S I *D sky130_fd_sc_hd__mux2_1
*I *1108:X O *D sky130_fd_sc_hd__and4_1
*CAP
1 *1117:A2 5.56574e-05
2 *1109:S 0.000723843
3 *1108:X 6.30523e-05
4 *198:8 0.000842553
5 *1109:S *1104:A1 0.000168226
6 *1109:S *1112:A0 9.25014e-06
7 *1109:S *1328:A 3.34366e-05
8 *1109:S *243:16 0
9 *1109:S *257:34 9.10431e-06
10 *1109:S *259:25 0.000263699
11 *1109:S *259:29 0
12 *1117:A2 *1117:A1 7.90536e-05
13 *1117:A2 *1117:A3 4.40835e-05
14 *1117:A2 *1328:A 2.14658e-05
15 *198:8 *1117:A3 7.83659e-05
16 *198:8 *1328:A 0.00015234
17 *198:8 *259:29 0
18 *1104:B1_N *1109:S 0.000202842
19 *1247:RESET_B *1109:S 8.06331e-05
20 *194:8 *1109:S 2.27416e-05
*RES
1 *1108:X *198:8 15.7464 
2 *198:8 *1109:S 29.9964 
3 *198:8 *1117:A2 15.3804 
*END

*D_NET *199 0.000541287
*CONN
*I *1112:A1 I *D sky130_fd_sc_hd__mux2_1
*I *1109:X O *D sky130_fd_sc_hd__mux2_1
*CAP
1 *1112:A1 0.000155915
2 *1109:X 0.000155915
3 *1112:A1 *1112:A0 0.000229456
4 *194:8 *1112:A1 0
*RES
1 *1109:X *1112:A1 21.6179 
*END

*D_NET *200 0.000610942
*CONN
*I *1111:A2 I *D sky130_fd_sc_hd__o21a_4
*I *1110:X O *D sky130_fd_sc_hd__o311a_1
*CAP
1 *1111:A2 0.000169861
2 *1110:X 0.000169861
3 *1111:A2 *1163:B 9.90431e-05
4 *1111:A2 *237:10 3.84478e-05
5 *1110:C1 *1111:A2 9.09693e-05
6 *1111:A1 *1111:A2 1.99099e-05
7 *1163:C *1111:A2 2.28499e-05
*RES
1 *1110:X *1111:A2 30.9036 
*END

*D_NET *201 0.0159486
*CONN
*I *1138:S I *D sky130_fd_sc_hd__mux2_1
*I *1133:S I *D sky130_fd_sc_hd__mux2_1
*I *1142:S I *D sky130_fd_sc_hd__mux2_1
*I *1146:S I *D sky130_fd_sc_hd__mux2_1
*I *1128:S I *D sky130_fd_sc_hd__mux2_1
*I *1123:S I *D sky130_fd_sc_hd__mux2_1
*I *1118:S I *D sky130_fd_sc_hd__mux2_1
*I *1112:S I *D sky130_fd_sc_hd__mux2_1
*I *1111:X O *D sky130_fd_sc_hd__o21a_4
*CAP
1 *1138:S 0.000105531
2 *1133:S 0.000612984
3 *1142:S 0
4 *1146:S 0.000400989
5 *1128:S 0
6 *1123:S 4.39782e-05
7 *1118:S 0
8 *1112:S 0.000714137
9 *1111:X 0.000963879
10 *201:88 0.000976545
11 *201:81 0.000739822
12 *201:66 0.00110505
13 *201:53 0.000596904
14 *201:40 0.000507807
15 *201:20 0.00146322
16 *201:14 0.00180215
17 *1112:S *1118:A1 1.74352e-05
18 *1112:S *1119:A 5.48581e-05
19 *1112:S *1246:CLK 0.000123903
20 *1112:S *243:16 0
21 *1112:S *259:25 5.33334e-05
22 *1112:S *265:79 0.0003106
23 *1123:S *1122:A1_N 0.00010946
24 *1123:S *1122:A2_N 0
25 *1123:S *258:26 2.72053e-05
26 *1133:S *1133:A0 2.44266e-05
27 *1133:S *1134:A 0
28 *1133:S *1244:CLK 0
29 *1133:S *203:123 1.58163e-05
30 *1133:S *247:107 0.000128154
31 *1138:S *1138:A1 6.94534e-05
32 *1138:S *246:109 5.52302e-05
33 *1138:S *255:16 5.52302e-05
34 *1138:S *255:28 0.000147131
35 *1146:S *1140:A 5.33433e-05
36 *1146:S *1146:A0 0.000146523
37 *1146:S *293:42 0.000206383
38 *201:14 *1059:B 0
39 *201:14 *247:10 0.000185643
40 *201:14 *293:46 0
41 *201:14 *357:77 2.82057e-05
42 *201:14 *359:26 0.000228483
43 *201:14 *359:30 1.00375e-05
44 *201:14 *359:40 0.000299274
45 *201:20 *1124:A 0.00010096
46 *201:20 *258:26 2.88424e-05
47 *201:20 *259:25 6.05161e-06
48 *201:40 *1122:A1_N 4.15914e-05
49 *201:40 *258:26 5.90443e-06
50 *201:53 *1127:B1 5.16852e-05
51 *201:66 *1140:A 0.000119193
52 *201:81 *1142:A0 5.33005e-05
53 *201:81 *1142:A1 7.83659e-05
54 *201:81 *1191:B 0.000414755
55 *201:81 *1241:CLK 0
56 *201:88 *1142:A0 0.000254049
57 *1120:A2 *201:14 0.000272729
58 *1184:A *201:14 9.69119e-06
59 *1246:D *201:20 2.89016e-05
60 *1247:D *1112:S 0.000104974
61 *1271:D *201:14 0
62 *131:76 *201:14 0.000397918
63 *131:91 *201:14 0.000140933
64 *186:40 *201:20 0.000125908
65 *186:40 *201:40 4.75908e-05
66 *186:44 *201:40 8.07879e-05
67 *186:44 *201:53 0.000579309
68 *186:57 *201:53 0.000164561
69 *186:57 *201:66 1.02504e-05
70 *186:76 *201:66 0.00018459
71 *186:80 *201:66 0
72 *192:16 *201:14 0.00010326
73 *197:18 *201:53 2.8266e-06
74 *197:18 *201:66 1.37292e-05
75 *197:55 *1123:S 0.00014285
*RES
1 *1111:X *201:14 45.05 
2 *201:14 *201:20 18.0536 
3 *201:20 *1112:S 34.0857 
4 *201:20 *1118:S 9.3 
5 *201:14 *201:40 2.25 
6 *201:40 *1123:S 15.5857 
7 *201:40 *201:53 9.53571 
8 *201:53 *1128:S 13.8 
9 *201:53 *201:66 9.53571 
10 *201:66 *1146:S 18.05 
11 *201:66 *201:81 19.375 
12 *201:81 *1142:S 9.3 
13 *201:81 *201:88 4.64286 
14 *201:88 *1133:S 28.7643 
15 *201:88 *1138:S 21.2107 
*END

*D_NET *202 0.000493739
*CONN
*I *1113:A I *D sky130_fd_sc_hd__clkbuf_1
*I *1112:X O *D sky130_fd_sc_hd__mux2_1
*CAP
1 *1113:A 0.000155159
2 *1112:X 0.000155159
3 *1113:A *1109:A0 0
4 *1113:A *1112:A0 0
5 *1113:A *1334:A 0.00014183
6 *1113:A *243:16 4.15914e-05
*RES
1 *1112:X *1113:A 30.725 
*END

*D_NET *203 0.0139532
*CONN
*I *1175:S I *D sky130_fd_sc_hd__mux2_1
*I *1137:B2 I *D sky130_fd_sc_hd__a2bb2o_1
*I *1168:S I *D sky130_fd_sc_hd__mux2_1
*I *1173:S I *D sky130_fd_sc_hd__mux2_1
*I *1171:S I *D sky130_fd_sc_hd__mux2_1
*I *1164:A1 I *D sky130_fd_sc_hd__a22o_1
*I *1122:B2 I *D sky130_fd_sc_hd__a2bb2o_1
*I *1116:B I *D sky130_fd_sc_hd__nand2_1
*I *1177:S I *D sky130_fd_sc_hd__mux2_1
*I *1117:A1 I *D sky130_fd_sc_hd__o31ai_1
*I *1114:X O *D sky130_fd_sc_hd__clkbuf_4
*CAP
1 *1175:S 9.3563e-05
2 *1137:B2 0
3 *1168:S 0.000642124
4 *1173:S 5.02952e-05
5 *1171:S 2.17614e-05
6 *1164:A1 0.000165921
7 *1122:B2 5.98033e-05
8 *1116:B 0
9 *1177:S 3.30115e-05
10 *1117:A1 0.0001388
11 *1114:X 3.69431e-05
12 *203:123 0.00166773
13 *203:46 0.000637641
14 *203:32 0.00119882
15 *203:20 0.00134639
16 *203:18 0.000941008
17 *203:14 0.0003202
18 *203:12 0.000297521
19 *203:10 0.00136707
20 *203:6 0.000301702
21 *1117:A1 *1117:A3 2.27017e-05
22 *1117:A1 *1117:B1 0.000129868
23 *1117:A1 *1328:A 0.000185643
24 *1117:A1 *259:29 0.000104974
25 *1117:A1 *259:46 2.31791e-05
26 *1122:B2 *257:26 1.00332e-05
27 *1164:A1 *1164:B1 5.65955e-05
28 *1164:A1 *247:22 0.000106354
29 *1168:S *1141:A 9.83442e-05
30 *1168:S *1141:B 5.20669e-05
31 *1168:S *1142:A1 0.00036192
32 *1168:S *1168:A0 0.000274288
33 *1171:S *1171:A1 9.71197e-05
34 *1171:S *352:12 9.71197e-05
35 *1173:S *256:24 5.03772e-05
36 *1175:S *256:16 0.000130453
37 *1177:S *1108:A 5.52302e-05
38 *1177:S *1177:A1 5.52302e-05
39 *203:12 *1171:A0 4.02462e-05
40 *203:12 *247:75 0.000180173
41 *203:12 *256:16 0
42 *203:14 *1171:A0 8.68569e-05
43 *203:14 *247:75 8.33559e-05
44 *203:18 *1171:A0 3.92757e-05
45 *203:18 *247:64 9.74684e-05
46 *203:18 *247:75 0.000106552
47 *203:18 *267:23 0
48 *203:18 *352:12 0
49 *203:20 *246:8 5.52238e-05
50 *203:20 *257:14 4.43256e-05
51 *203:46 *1177:A0 1.33343e-05
52 *203:46 *1177:A1 0.000101078
53 *203:46 *257:36 4.13595e-05
54 *203:46 *258:38 7.70035e-05
55 *203:123 *1133:A0 6.05161e-06
56 *203:123 *1133:A1 7.6644e-05
57 *203:123 *1135:A1 1.21258e-05
58 *203:123 *1135:A2 2.89114e-05
59 *203:123 *1137:A1_N 7.72663e-05
60 *203:123 *247:75 0.000125674
61 *203:123 *247:107 3.57844e-05
62 *203:123 *256:10 0
63 *1099:A *1164:A1 7.43578e-06
64 *1099:A *203:20 9.53124e-05
65 *1114:A *203:6 1.21084e-05
66 *1114:A *203:10 5.66392e-05
67 *1115:A3 *203:46 1.69115e-05
68 *1117:A2 *1117:A1 7.90536e-05
69 *1133:S *203:123 1.58163e-05
70 *1184:A *203:20 2.59355e-05
71 *1245:RESET_B *203:18 0.000150618
72 *186:44 *1122:B2 0
73 *186:44 *203:32 4.15914e-05
74 *192:16 *203:18 9.25014e-06
75 *192:48 *203:18 0.000284172
76 *197:38 *1122:B2 0
77 *197:38 *203:32 0
78 *197:53 *203:20 0.00014285
79 *197:55 *203:20 0.00017381
80 *197:55 *203:32 0.000142004
81 *197:55 *203:46 0.000139215
*RES
1 *1114:X *203:6 9.83571 
2 *203:6 *203:10 6.67857 
3 *203:10 *203:12 4.375 
4 *203:12 *203:14 2.25 
5 *203:14 *203:18 11.3036 
6 *203:18 *203:20 7.51786 
7 *203:20 *203:32 20.875 
8 *203:32 *203:46 16.1607 
9 *203:46 *1117:A1 22.7464 
10 *203:46 *1177:S 10.2464 
11 *203:32 *1116:B 9.3 
12 *203:20 *1122:B2 19.3357 
13 *203:18 *1164:A1 12.8714 
14 *203:14 *1171:S 14.7464 
15 *203:12 *1173:S 14.7464 
16 *203:10 *203:123 19.5714 
17 *203:123 *1168:S 22.0679 
18 *203:123 *1137:B2 9.3 
19 *203:6 *1175:S 21.7643 
*END

*D_NET *204 0.000847598
*CONN
*I *1117:A3 I *D sky130_fd_sc_hd__o31ai_1
*I *1115:Y O *D sky130_fd_sc_hd__a31oi_1
*CAP
1 *1117:A3 0.000228918
2 *1115:Y 0.000228918
3 *1117:A3 *1115:A2 0.000125731
4 *1117:A3 *1328:A 3.22834e-05
5 *1117:A3 *259:29 3.34672e-05
6 *1117:A3 *259:46 5.31278e-05
7 *1117:A1 *1117:A3 2.27017e-05
8 *1117:A2 *1117:A3 4.40835e-05
9 *198:8 *1117:A3 7.83659e-05
*RES
1 *1115:Y *1117:A3 32.4214 
*END

*D_NET *205 0.00213054
*CONN
*I *1179:B1_N I *D sky130_fd_sc_hd__a21bo_1
*I *1117:B1 I *D sky130_fd_sc_hd__o31ai_1
*I *1116:Y O *D sky130_fd_sc_hd__nand2_1
*CAP
1 *1179:B1_N 0.000176755
2 *1117:B1 0.000215992
3 *1116:Y 0.00016336
4 *205:12 0.000556107
5 *1117:B1 *1177:A0 0.000115707
6 *1117:B1 *1328:A 0
7 *1117:B1 *243:16 0.00015304
8 *1117:B1 *259:29 4.23086e-05
9 *1117:B1 *259:46 7.4826e-05
10 *1179:B1_N *1177:A0 0
11 *1179:B1_N *1179:A1 0.000205856
12 *1179:B1_N *1328:A 0
13 *205:12 *1115:A2 5.33005e-05
14 *205:12 *1177:A0 4.88637e-05
15 *205:12 *258:38 4.82222e-05
16 *205:12 *258:49 3.5871e-05
17 *205:12 *259:46 5.52302e-05
18 *1117:A1 *1117:B1 0.000129868
19 *1179:A2 *1179:B1_N 5.52302e-05
*RES
1 *1116:Y *205:12 17.0946 
2 *205:12 *1117:B1 19.9875 
3 *205:12 *1179:B1_N 17.3446 
*END

*D_NET *206 0.000395596
*CONN
*I *1118:A1 I *D sky130_fd_sc_hd__mux2_1
*I *1117:Y O *D sky130_fd_sc_hd__o31ai_1
*CAP
1 *1118:A1 0.000101487
2 *1117:Y 0.000101487
3 *1118:A1 *243:16 4.15914e-05
4 *1118:A1 *259:25 5.52302e-05
5 *1118:A1 *259:29 7.83659e-05
6 *1112:S *1118:A1 1.74352e-05
*RES
1 *1117:Y *1118:A1 29.5821 
*END

*D_NET *207 0.000314325
*CONN
*I *1119:A I *D sky130_fd_sc_hd__clkbuf_1
*I *1118:X O *D sky130_fd_sc_hd__mux2_1
*CAP
1 *1119:A 5.35634e-05
2 *1118:X 5.35634e-05
3 *1119:A *243:16 0.00015234
4 *1112:S *1119:A 5.48581e-05
*RES
1 *1118:X *1119:A 29.5464 
*END

*D_NET *208 0.000599708
*CONN
*I *1122:A1_N I *D sky130_fd_sc_hd__a2bb2o_1
*I *1120:Y O *D sky130_fd_sc_hd__a21oi_1
*CAP
1 *1122:A1_N 0.000139168
2 *1120:Y 0.000139168
3 *1122:A1_N *1122:A2_N 0
4 *1122:A1_N *258:26 0.000121526
5 *1123:S *1122:A1_N 0.00010946
6 *186:130 *1122:A1_N 6.05161e-06
7 *197:55 *1122:A1_N 4.27437e-05
8 *201:40 *1122:A1_N 4.15914e-05
*RES
1 *1120:Y *1122:A1_N 31.1357 
*END

*D_NET *209 0.000514381
*CONN
*I *1122:A2_N I *D sky130_fd_sc_hd__a2bb2o_1
*I *1121:X O *D sky130_fd_sc_hd__a31o_1
*CAP
1 *1122:A2_N 8.37795e-05
2 *1121:X 8.37795e-05
3 *1122:A2_N *257:18 5.52302e-05
4 *1121:A3 *1122:A2_N 0
5 *1122:A1_N *1122:A2_N 0
6 *1123:S *1122:A2_N 0
7 *186:130 *1122:A2_N 0.000228188
8 *197:55 *1122:A2_N 6.34037e-05
*RES
1 *1121:X *1122:A2_N 21.5107 
*END

*D_NET *210 0.000425529
*CONN
*I *1123:A1 I *D sky130_fd_sc_hd__mux2_1
*I *1122:X O *D sky130_fd_sc_hd__a2bb2o_1
*CAP
1 *1123:A1 0.000119433
2 *1122:X 0.000119433
3 *197:55 *1123:A1 0.000186662
*RES
1 *1122:X *1123:A1 20.3679 
*END

*D_NET *211 0.000662453
*CONN
*I *1124:A I *D sky130_fd_sc_hd__clkbuf_1
*I *1123:X O *D sky130_fd_sc_hd__mux2_1
*CAP
1 *1124:A 0.000280747
2 *1123:X 0.000280747
3 *1124:A *258:26 0
4 *201:20 *1124:A 0.00010096
*RES
1 *1123:X *1124:A 32.7429 
*END

*D_NET *212 0.00054978
*CONN
*I *1127:B1 I *D sky130_fd_sc_hd__a22o_1
*I *1125:X O *D sky130_fd_sc_hd__or2_1
*CAP
1 *1127:B1 0.000171785
2 *1125:X 0.000171785
3 *1127:B1 *1127:B2 0.000123117
4 *1127:B1 *352:12 3.14078e-05
5 *201:53 *1127:B1 5.16852e-05
*RES
1 *1125:X *1127:B1 31.3321 
*END

*D_NET *213 0.000955319
*CONN
*I *1127:B2 I *D sky130_fd_sc_hd__a22o_1
*I *1126:Y O *D sky130_fd_sc_hd__a21oi_1
*CAP
1 *1127:B2 0.000267869
2 *1126:Y 0.000267869
3 *1127:B2 *352:12 0.000139913
4 *1126:B1 *1127:B2 0.00014285
5 *1127:A2 *1127:B2 1.3701e-05
6 *1127:B1 *1127:B2 0.000123117
7 *192:56 *1127:B2 0
*RES
1 *1126:Y *1127:B2 33.1179 
*END

*D_NET *214 0.000552884
*CONN
*I *1128:A1 I *D sky130_fd_sc_hd__mux2_1
*I *1127:X O *D sky130_fd_sc_hd__a22o_1
*CAP
1 *1128:A1 0.00011954
2 *1127:X 0.00011954
3 *1128:A1 *1127:A1 0
4 *1128:A1 *1129:A 7.83659e-05
5 *1128:A1 *352:12 9.77414e-05
6 *186:57 *1128:A1 0.000127446
7 *186:76 *1128:A1 1.02504e-05
*RES
1 *1127:X *1128:A1 30.1893 
*END

*D_NET *215 0.00113891
*CONN
*I *1129:A I *D sky130_fd_sc_hd__clkbuf_1
*I *1128:X O *D sky130_fd_sc_hd__mux2_1
*CAP
1 *1129:A 0.000373175
2 *1128:X 0.000373175
3 *1129:A *1245:CLK 0
4 *1129:A *257:88 0.000153148
5 *1129:A *257:90 3.69047e-06
6 *1128:A1 *1129:A 7.83659e-05
7 *186:44 *1129:A 7.73758e-05
8 *186:57 *1129:A 2.49484e-05
9 *192:48 *1129:A 5.50313e-05
*RES
1 *1128:X *1129:A 34.5107 
*END

*D_NET *216 0.000370609
*CONN
*I *1132:B1 I *D sky130_fd_sc_hd__a22o_1
*I *1130:X O *D sky130_fd_sc_hd__a31o_1
*CAP
1 *1132:B1 0.000113657
2 *1130:X 0.000113657
3 *1132:B1 *246:85 0
4 *1132:B1 *255:51 0.000143295
*RES
1 *1130:X *1132:B1 20.3857 
*END

*D_NET *217 0.000792859
*CONN
*I *1132:B2 I *D sky130_fd_sc_hd__a22o_1
*I *1131:Y O *D sky130_fd_sc_hd__nor2_1
*CAP
1 *1132:B2 0.000260059
2 *1131:Y 0.000260059
3 *1132:B2 *1106:D 0.000113372
4 *1132:B2 *246:105 0
5 *1132:B2 *253:71 4.1331e-06
6 *1132:B2 *255:57 0.000101076
7 *1131:B *1132:B2 5.41609e-05
*RES
1 *1131:Y *1132:B2 33.0286 
*END

*D_NET *218 0.00052759
*CONN
*I *1133:A1 I *D sky130_fd_sc_hd__mux2_1
*I *1132:X O *D sky130_fd_sc_hd__a22o_1
*CAP
1 *1133:A1 0.000128816
2 *1132:X 0.000128816
3 *1133:A1 *1130:B1 6.75903e-05
4 *1133:A1 *247:107 0.000125724
5 *1133:A1 *267:56 0
6 *203:123 *1133:A1 7.6644e-05
*RES
1 *1132:X *1133:A1 30.1893 
*END

*D_NET *219 0.000298955
*CONN
*I *1134:A I *D sky130_fd_sc_hd__clkbuf_1
*I *1133:X O *D sky130_fd_sc_hd__mux2_1
*CAP
1 *1134:A 0.000139084
2 *1133:X 0.000139084
3 *1134:A *1133:A0 2.07878e-05
4 *1133:S *1134:A 0
*RES
1 *1133:X *1134:A 29.7786 
*END

*D_NET *220 0.000240717
*CONN
*I *1137:A1_N I *D sky130_fd_sc_hd__a2bb2o_1
*I *1135:Y O *D sky130_fd_sc_hd__a21oi_1
*CAP
1 *1137:A1_N 7.18406e-05
2 *1135:Y 7.18406e-05
3 *1137:A1_N *1135:A2 1.97695e-05
4 *203:123 *1137:A1_N 7.72663e-05
*RES
1 *1135:Y *1137:A1_N 20.3857 
*END

*D_NET *221 0.00073964
*CONN
*I *1137:A2_N I *D sky130_fd_sc_hd__a2bb2o_1
*I *1136:X O *D sky130_fd_sc_hd__a31o_1
*CAP
1 *1137:A2_N 0.000275832
2 *1136:X 0.000275832
3 *1137:A2_N *253:58 4.43256e-05
4 *1137:A2_N *253:69 0.000143651
5 *1137:A2_N *254:14 0
6 *1137:A2_N *254:20 0
*RES
1 *1136:X *1137:A2_N 31.725 
*END

*D_NET *222 0.000858354
*CONN
*I *1138:A1 I *D sky130_fd_sc_hd__mux2_1
*I *1137:X O *D sky130_fd_sc_hd__a2bb2o_1
*CAP
1 *1138:A1 0.000272143
2 *1137:X 0.000272143
3 *1138:A1 *1193:B 0
4 *1138:A1 *246:105 0
5 *1138:A1 *254:12 0
6 *1138:A1 *255:16 9.87617e-05
7 *1138:A1 *255:28 0.000145852
8 *1138:S *1138:A1 6.94534e-05
*RES
1 *1137:X *1138:A1 33.225 
*END

*D_NET *223 0.000274854
*CONN
*I *1139:A I *D sky130_fd_sc_hd__clkbuf_1
*I *1138:X O *D sky130_fd_sc_hd__mux2_1
*CAP
1 *1139:A 3.75945e-05
2 *1138:X 3.75945e-05
3 *1139:A *1192:A 6.97972e-05
4 *1139:A *254:12 0.000129868
*RES
1 *1138:X *1139:A 29.2429 
*END

*D_NET *224 0.00166151
*CONN
*I *1141:B I *D sky130_fd_sc_hd__xnor2_1
*I *1170:B1 I *D sky130_fd_sc_hd__o21ai_1
*I *1140:Y O *D sky130_fd_sc_hd__nand2_1
*CAP
1 *1141:B 0.000562626
2 *1170:B1 6.3649e-05
3 *1140:Y 4.12511e-05
4 *224:6 0.000667526
5 *1141:B *1241:CLK 0.000170438
6 *1170:B1 *1328:A 1.32056e-05
7 *1145:S *1170:B1 5.38444e-06
8 *1168:S *1141:B 5.20669e-05
9 *192:56 *1170:B1 1.32056e-05
10 *192:56 *224:6 2.12005e-05
11 *192:60 *1170:B1 5.09539e-05
*RES
1 *1140:Y *224:6 9.83571 
2 *224:6 *1170:B1 10.9964 
3 *224:6 *1141:B 28.175 
*END

*D_NET *225 0.000993475
*CONN
*I *1142:A1 I *D sky130_fd_sc_hd__mux2_1
*I *1141:Y O *D sky130_fd_sc_hd__xnor2_1
*CAP
1 *1142:A1 0.000276595
2 *1141:Y 0.000276595
3 *1142:A1 *1241:CLK 0
4 *1168:S *1142:A1 0.00036192
5 *201:81 *1142:A1 7.83659e-05
*RES
1 *1141:Y *1142:A1 32.0464 
*END

*D_NET *226 0.000625484
*CONN
*I *1143:A I *D sky130_fd_sc_hd__clkbuf_1
*I *1142:X O *D sky130_fd_sc_hd__mux2_1
*CAP
1 *1143:A 0.000312742
2 *1142:X 0.000312742
3 *1143:A *1191:B 0
4 *1143:A *1192:B 0
5 *1143:A *1241:CLK 0
6 *1143:A *1242:CLK 0
*RES
1 *1142:X *1143:A 32.6179 
*END

*D_NET *227 0.000898914
*CONN
*I *1170:A1 I *D sky130_fd_sc_hd__o21ai_1
*I *1145:A1 I *D sky130_fd_sc_hd__mux2_1
*I *1144:Y O *D sky130_fd_sc_hd__inv_2
*CAP
1 *1170:A1 2.84081e-05
2 *1145:A1 4.7768e-05
3 *1144:Y 9.13062e-05
4 *227:12 0.000167482
5 *1145:A1 *1328:A 2.59355e-05
6 *1170:A1 *1328:A 4.82947e-05
7 *227:12 *1144:A 0.000148903
8 *227:12 *1328:A 0.000148903
9 *227:12 *352:12 5.52302e-05
10 *1145:S *1145:A1 5.33005e-05
11 *1145:S *1170:A1 8.33813e-05
*RES
1 *1144:Y *227:12 20.7821 
2 *227:12 *1145:A1 10.2464 
3 *227:12 *1170:A1 10.2464 
*END

*D_NET *228 0.000129889
*CONN
*I *1146:A1 I *D sky130_fd_sc_hd__mux2_1
*I *1145:X O *D sky130_fd_sc_hd__mux2_1
*CAP
1 *1146:A1 5.099e-05
2 *1145:X 5.099e-05
3 *1146:A1 *1145:A0 0
4 *1146:A1 *292:14 2.79092e-05
*RES
1 *1145:X *1146:A1 28.6357 
*END

*D_NET *229 0.000255676
*CONN
*I *1147:A I *D sky130_fd_sc_hd__clkbuf_1
*I *1146:X O *D sky130_fd_sc_hd__mux2_1
*CAP
1 *1147:A 8.75216e-05
2 *1146:X 8.75216e-05
3 *1147:A *292:14 8.06331e-05
*RES
1 *1146:X *1147:A 29.5464 
*END

*D_NET *230 0.00483723
*CONN
*I *1149:S I *D sky130_fd_sc_hd__mux2_1
*I *1160:A3 I *D sky130_fd_sc_hd__o32a_1
*I *1148:Y O *D sky130_fd_sc_hd__nand2_1
*CAP
1 *1149:S 0.00131113
2 *1160:A3 0.000185478
3 *1148:Y 4.02044e-05
4 *230:6 0.00153681
5 *1149:S *1164:B1 0.000358394
6 *1149:S *1175:A0 0.000577115
7 *1149:S *1240:CLK 2.8266e-06
8 *1149:S *1269:D 0
9 *1149:S *1288:A 1.0562e-05
10 *1149:S *267:23 6.16276e-05
11 *1149:S *267:56 9.86048e-05
12 *1149:S *267:69 0.000171703
13 *1149:S *308:12 1.88048e-05
14 *1149:S *311:12 0
15 *1160:A3 *1160:A1 1.09427e-05
16 *1160:A3 *1160:A2 3.64936e-05
17 *1160:B2 *1160:A3 6.17796e-06
18 *1164:A2 *1149:S 0.000129015
19 *1164:A2 *1160:A3 9.60939e-05
20 *1244:D *1149:S 5.33786e-05
21 *1244:RESET_B *1149:S 0
22 *154:77 *1160:A3 1.33343e-05
23 *154:77 *230:6 4.18895e-05
24 *154:96 *1149:S 0
25 *192:16 *1149:S 7.6644e-05
*RES
1 *1148:Y *230:6 9.83571 
2 *230:6 *1160:A3 12.4786 
3 *230:6 *1149:S 49.3893 
*END

*D_NET *231 0.000495951
*CONN
*I *1150:A I *D sky130_fd_sc_hd__clkbuf_1
*I *1149:X O *D sky130_fd_sc_hd__mux2_1
*CAP
1 *1150:A 0.000208628
2 *1149:X 0.000208628
3 *1150:A *1240:CLK 0
4 *1150:A *267:73 7.86956e-05
*RES
1 *1149:X *1150:A 30.9036 
*END

*D_NET *232 0.00104961
*CONN
*I *1152:A1 I *D sky130_fd_sc_hd__a31o_1
*I *1151:Y O *D sky130_fd_sc_hd__inv_2
*CAP
1 *1152:A1 0.000269716
2 *1151:Y 0.000269716
3 *1152:A1 *1152:B1 0.000485742
4 *1152:A3 *1152:A1 2.44318e-05
*RES
1 *1151:Y *1152:A1 24.0821 
*END

*D_NET *233 0.00033105
*CONN
*I *1154:B1 I *D sky130_fd_sc_hd__a31o_1
*I *1153:X O *D sky130_fd_sc_hd__o31a_1
*CAP
1 *1154:B1 3.8086e-05
2 *1153:X 3.8086e-05
3 *1154:B1 *1154:A1 0.000127439
4 *1154:B1 *305:16 0.000127439
*RES
1 *1153:X *1154:B1 29.2429 
*END

*D_NET *234 0.00101892
*CONN
*I *1157:B1 I *D sky130_fd_sc_hd__a22o_1
*I *1156:X O *D sky130_fd_sc_hd__o211a_1
*CAP
1 *1157:B1 0.000224137
2 *1156:X 0.000224137
3 *1157:B1 *1072:A1 6.91215e-06
4 *1157:B1 *1156:A1 0.000125724
5 *1157:B1 *1157:A1 2.89114e-05
6 *1157:B1 *1253:CLK 6.8646e-06
7 *1157:B1 *310:12 5.44167e-05
8 *1088:S *1157:B1 0.000101545
9 *1089:A *1157:B1 5.01117e-05
10 *1157:A2 *1157:B1 5.52238e-05
11 *154:14 *1157:B1 0
12 *154:20 *1157:B1 0.000140933
*RES
1 *1156:X *1157:B1 33.2607 
*END

*D_NET *235 0.000553398
*CONN
*I *1161:A I *D sky130_fd_sc_hd__inv_2
*I *1160:X O *D sky130_fd_sc_hd__o32a_1
*CAP
1 *1161:A 0.000267468
2 *1160:X 0.000267468
3 *1161:A *1160:A1 1.8461e-05
*RES
1 *1160:X *1161:A 22.85 
*END

*D_NET *236 0.00159263
*CONN
*I *1165:B1 I *D sky130_fd_sc_hd__a2bb2o_1
*I *1163:D I *D sky130_fd_sc_hd__or4_1
*I *1162:Y O *D sky130_fd_sc_hd__nand3_1
*CAP
1 *1165:B1 0.000126078
2 *1163:D 8.99658e-05
3 *1162:Y 0.000318032
4 *236:14 0.000534076
5 *1163:D *1221:B 1.08359e-05
6 *1163:D *250:75 9.90367e-05
7 *1163:D *250:91 4.38265e-05
8 *1165:B1 *237:10 0
9 *1165:B1 *250:91 0.000115369
10 *236:14 *1162:A 1.94879e-05
11 *236:14 *251:61 4.97413e-05
12 *1057:A2 *236:14 0.000151855
13 *1057:B1 *236:14 1.99461e-05
14 *1266:RESET_B *1165:B1 2.65699e-06
15 *156:51 *236:14 1.17182e-05
*RES
1 *1162:Y *236:14 21.896 
2 *236:14 *1163:D 15.6304 
3 *236:14 *1165:B1 16.5589 
*END

*D_NET *237 0.00418858
*CONN
*I *1164:B1 I *D sky130_fd_sc_hd__a22o_1
*I *1165:A2_N I *D sky130_fd_sc_hd__a2bb2o_1
*I *1163:X O *D sky130_fd_sc_hd__or4_1
*CAP
1 *1164:B1 0.000627546
2 *1165:A2_N 0.000127056
3 *1163:X 0.000173579
4 *237:10 0.000928181
5 *1164:B1 *1148:A 0.000387425
6 *1164:B1 *1160:A2 0
7 *1164:B1 *1270:CLK 2.28598e-05
8 *1164:B1 *247:22 4.73044e-05
9 *1100:B *1164:B1 1.81709e-05
10 *1110:C1 *1164:B1 7.6644e-05
11 *1111:A1 *1164:B1 0.000329101
12 *1111:A1 *237:10 8.49318e-05
13 *1111:A2 *237:10 3.84478e-05
14 *1149:S *1164:B1 0.000358394
15 *1164:A1 *1164:B1 5.65955e-05
16 *1164:A2 *1164:B1 9.58126e-05
17 *1165:A1_N *1164:B1 0.000271958
18 *1165:A1_N *1165:A2_N 5.49544e-05
19 *1165:A1_N *237:10 5.7616e-05
20 *1165:B1 *237:10 0
21 *1268:D *1165:A2_N 3.69047e-06
22 *1270:D *1164:B1 0.0001399
23 *154:53 *1164:B1 0.000270243
24 *154:96 *1164:B1 0
25 *192:16 *1164:B1 1.81709e-05
*RES
1 *1163:X *237:10 16.8893 
2 *237:10 *1165:A2_N 16.0143 
3 *237:10 *1164:B1 31.1929 
*END

*D_NET *238 0.000689513
*CONN
*I *1167:A2 I *D sky130_fd_sc_hd__o21a_1
*I *1166:Y O *D sky130_fd_sc_hd__nor2_1
*CAP
1 *1167:A2 0.000255188
2 *1166:Y 0.000255188
3 *1167:A2 *1152:A2 3.1367e-05
4 *1167:A2 *1167:A1 0.00014777
*RES
1 *1166:Y *1167:A2 31.35 
*END

*D_NET *239 0.000206275
*CONN
*I *1169:A I *D sky130_fd_sc_hd__clkbuf_1
*I *1168:X O *D sky130_fd_sc_hd__mux2_1
*CAP
1 *1169:A 6.82389e-05
2 *1168:X 6.82389e-05
3 *1169:A *292:14 6.97972e-05
*RES
1 *1168:X *1169:A 29.2429 
*END

*D_NET *240 0.00780723
*CONN
*I *1172:A I *D sky130_fd_sc_hd__buf_1
*I *1171:X O *D sky130_fd_sc_hd__mux2_1
*CAP
1 *1172:A 0.000207396
2 *1171:X 0.00283185
3 *240:12 0.00303925
4 *1172:A *1174:A 0.000278107
5 *1172:A *280:10 9.90431e-05
6 *240:12 *1155:B1 6.89791e-05
7 *240:12 *1159:B1 0.000357883
8 *240:12 *1174:A 0.000227626
9 *240:12 *1278:CLK 3.14048e-05
10 *240:12 *1288:A 6.28356e-05
11 *240:12 *1289:A 1.92789e-05
12 *240:12 *268:6 0.000156548
13 *240:12 *268:56 0.000110029
14 *1159:A3 *240:12 3.58616e-05
15 *1278:RESET_B *1172:A 4.52936e-05
16 *1308:A *240:12 9.40156e-05
17 *1312:A *240:12 0.00014183
*RES
1 *1171:X *240:12 49.8357 
2 *240:12 *1172:A 13.8536 
*END

*D_NET *241 0.00689012
*CONN
*I *1174:A I *D sky130_fd_sc_hd__clkbuf_1
*I *1173:X O *D sky130_fd_sc_hd__mux2_1
*CAP
1 *1174:A 0.000416377
2 *1173:X 0.00218426
3 *241:22 0.00260064
4 *1174:A *1181:A 0
5 *241:22 *1021:A1 4.775e-05
6 *241:22 *1269:CLK 9.71197e-05
7 *241:22 *1269:D 0.000127353
8 *241:22 *1283:A 5.71472e-05
9 *241:22 *1285:A 5.70688e-05
10 *241:22 *358:8 0.000137019
11 *241:22 *358:25 6.94273e-05
12 *1021:A0 *1174:A 0.000110327
13 *1021:S *241:22 4.57099e-05
14 *1022:A *1174:A 1.76039e-05
15 *1172:A *1174:A 0.000278107
16 *1272:RESET_B *241:22 0.00018077
17 *1278:D *1174:A 0.000137689
18 *1278:RESET_B *1174:A 9.81253e-05
19 *240:12 *1174:A 0.000227626
*RES
1 *1173:X *241:22 46.4429 
2 *241:22 *1174:A 29.6571 
*END

*D_NET *242 0.00751828
*CONN
*I *1176:A I *D sky130_fd_sc_hd__clkbuf_1
*I *1175:X O *D sky130_fd_sc_hd__mux2_1
*CAP
1 *1176:A 0.000657054
2 *1175:X 0.00191298
3 *242:10 0.00257004
4 *1176:A *1235:A 0.000227539
5 *1176:A *1304:A 0.000227532
6 *1176:A *1331:A 6.97494e-05
7 *242:10 *1279:CLK 4.15914e-05
8 *242:10 *1283:A 0
9 *242:10 *1285:A 3.67142e-05
10 *242:10 *246:85 3.48705e-05
11 *242:10 *247:79 0.000227322
12 *242:10 *264:12 0.000185643
13 *242:10 *277:24 4.5862e-05
14 *1015:B *242:10 0.000358977
15 *1031:A *242:10 3.91935e-05
16 *1053:A *242:10 0.000186662
17 *1239:RESET_B *242:10 9.18999e-05
18 *1265:SET_B *242:10 5.71472e-05
19 *1279:D *242:10 0.000183377
20 *132:128 *242:10 0.000181803
21 *134:119 *242:10 0
22 *138:47 *242:10 7.8327e-05
23 *138:49 *242:10 0.000103993
*RES
1 *1175:X *242:10 49.5143 
2 *242:10 *1176:A 25.8357 
*END

*D_NET *243 0.00483036
*CONN
*I *1178:A I *D sky130_fd_sc_hd__clkbuf_1
*I *1177:X O *D sky130_fd_sc_hd__mux2_1
*CAP
1 *1178:A 0
2 *1177:X 8.51966e-05
3 *243:16 0.00182536
4 *243:8 0.00191055
5 *243:8 *1177:A0 9.33978e-07
6 *243:16 *1104:A1 0
7 *243:16 *1112:A0 0
8 *243:16 *1334:A 0.000522024
9 *243:16 *259:25 0
10 *243:16 *259:29 2.28159e-05
11 *243:16 *265:79 0
12 oaddr[1] *243:16 0
13 *1109:S *243:16 0
14 *1112:S *243:16 0
15 *1113:A *243:16 4.15914e-05
16 *1117:B1 *243:16 0.00015304
17 *1118:A1 *243:16 4.15914e-05
18 *1119:A *243:16 0.00015234
19 *1247:D *243:16 3.79467e-05
20 *1248:D *243:16 3.69697e-05
21 *1263:D *243:16 0
*RES
1 *1177:X *243:8 14.7464 
2 *243:8 *243:16 43.2321 
3 *243:16 *1178:A 9.3 
*END

*D_NET *244 0.00671913
*CONN
*I *1181:A I *D sky130_fd_sc_hd__clkbuf_1
*I *1180:X O *D sky130_fd_sc_hd__or2_1
*CAP
1 *1181:A 0.00113629
2 *1180:X 0.000811894
3 *244:8 0.00194819
4 *1181:A *1011:A1 0.000575624
5 *1181:A *281:10 0.00015234
6 *1021:A0 *1181:A 0
7 *1022:A *1181:A 0
8 *1174:A *1181:A 0
9 *1237:RESET_B *244:8 0.000357856
10 *1278:D *1181:A 0
11 *1279:RESET_B *1181:A 0
12 *1280:D *1181:A 0.000128161
13 *132:20 *244:8 0.000346
14 *132:42 *1181:A 0.000214831
15 *132:59 *1181:A 0.000198698
16 *132:93 *1181:A 0.000136276
17 *134:60 *244:8 0.000274294
18 *134:67 *244:8 0.000251204
19 *134:76 *244:8 0.000187465
20 *136:97 *1181:A 0
*RES
1 *1180:X *244:8 31.5857 
2 *244:8 *1181:A 40.3357 
*END

*D_NET *245 0.000660454
*CONN
*I *1183:A I *D sky130_fd_sc_hd__clkbuf_1
*I *1182:X O *D sky130_fd_sc_hd__or2_1
*CAP
1 *1183:A 0.000253142
2 *1182:X 0.000253142
3 *1183:A *355:48 9.9322e-05
4 *1240:RESET_B *1183:A 5.48488e-05
5 *1274:D *1183:A 0
*RES
1 *1182:X *1183:A 32.5643 
*END

*D_NET *246 0.0192696
*CONN
*I *1193:A I *D sky130_fd_sc_hd__nor2_1
*I *1192:A I *D sky130_fd_sc_hd__nor2_1
*I *1191:A I *D sky130_fd_sc_hd__nor2_1
*I *1194:A I *D sky130_fd_sc_hd__nor2_1
*I *1190:A I *D sky130_fd_sc_hd__nor2_1
*I *1195:A I *D sky130_fd_sc_hd__nor2_1
*I *1189:A I *D sky130_fd_sc_hd__nor2_1
*I *1187:A I *D sky130_fd_sc_hd__nor2_1
*I *1186:A I *D sky130_fd_sc_hd__nor2_1
*I *1188:A I *D sky130_fd_sc_hd__nor2_1
*I *1184:X O *D sky130_fd_sc_hd__clkbuf_4
*CAP
1 *1193:A 3.82418e-05
2 *1192:A 0.000112333
3 *1191:A 0.000394454
4 *1194:A 0
5 *1190:A 0.000251155
6 *1195:A 0
7 *1189:A 0.000629217
8 *1187:A 0
9 *1186:A 1.85698e-05
10 *1188:A 2.04856e-05
11 *1184:X 1.40568e-05
12 *246:109 0.000733248
13 *246:105 0.00061998
14 *246:85 0.000900425
15 *246:75 0.00134449
16 *246:66 0.000490851
17 *246:48 0.000884789
18 *246:33 0.000548343
19 *246:24 0.00211045
20 *246:8 0.00198073
21 *1186:A *1186:B 5.7661e-06
22 *1186:A *247:41 3.99614e-06
23 *1188:A *247:26 5.38444e-06
24 *1189:A *1189:B 0.000601904
25 *1189:A *1239:D 4.57445e-05
26 *1189:A *277:24 0
27 *1190:A *1190:B 0.000601226
28 *1190:A *1229:A 0
29 *1190:A *355:48 0.000404802
30 *1191:A *1191:B 0.000209902
31 *1191:A *1192:B 0
32 *1191:A *254:12 5.42055e-05
33 *1191:A *254:14 4.46186e-06
34 *1191:A *254:20 0
35 *1192:A *1192:B 0
36 *1192:A *254:12 3.79197e-05
37 *246:24 *1167:A1 9.25014e-06
38 *246:24 *1180:B 0
39 *246:24 *247:22 0.0014731
40 *246:24 *247:26 4.73286e-05
41 *246:24 *247:64 7.79781e-06
42 *246:24 *293:46 4.48583e-05
43 *246:24 *359:91 0.000101545
44 *246:33 *247:26 0.000224346
45 *246:33 *247:41 5.62995e-05
46 *246:48 *1189:B 5.80706e-06
47 *246:48 *247:41 0.000166012
48 *246:66 *247:64 0.000130283
49 *246:66 *293:42 4.92489e-05
50 *246:66 *293:46 0.000115951
51 *246:75 *247:64 4.1331e-06
52 *246:75 *247:75 0.000291845
53 *246:75 *255:57 0.000464535
54 *246:75 *293:42 0.000137043
55 *246:85 *1130:B1 2.58821e-05
56 *246:85 *1175:A0 5.33005e-05
57 *246:85 *247:79 0.000992213
58 *246:85 *255:51 0
59 *246:105 *1135:A1 0
60 *246:105 *1135:A2 0
61 *246:105 *1193:B 1.52978e-05
62 *246:105 *247:107 0.000189134
63 *246:105 *253:71 0
64 *246:105 *255:28 0
65 *246:105 *255:57 2.48938e-05
66 *246:109 *247:107 9.71197e-05
67 *246:109 *247:111 0.00074169
68 *246:109 *255:16 0.000212366
69 *1099:A *246:8 2.89016e-05
70 *1099:A *246:24 6.71657e-05
71 *1131:B *246:75 1.08359e-05
72 *1132:A2 *246:75 7.6644e-05
73 *1132:A2 *246:85 2.59355e-05
74 *1132:A2 *246:105 5.66157e-05
75 *1132:B1 *246:85 0
76 *1132:B2 *246:105 0
77 *1138:A1 *246:105 0
78 *1138:S *246:109 5.52302e-05
79 *1139:A *1192:A 6.97972e-05
80 *1184:A *246:24 3.07555e-05
81 *1237:RESET_B *1189:A 0
82 *1238:RESET_B *246:24 9.25014e-06
83 *1239:RESET_B *1189:A 0
84 *186:130 *246:24 0
85 *203:20 *246:8 5.52238e-05
86 *242:10 *246:85 3.48705e-05
*RES
1 *1184:X *246:8 14.3357 
2 *246:8 *246:24 39.5536 
3 *246:24 *1188:A 9.72857 
4 *246:24 *246:33 5.05357 
5 *246:33 *1186:A 9.72857 
6 *246:33 *246:48 9.35714 
7 *246:48 *1187:A 13.8 
8 *246:48 *1189:A 28.4964 
9 *246:8 *246:66 4.67857 
10 *246:66 *1195:A 13.8 
11 *246:66 *246:75 11.3571 
12 *246:75 *246:85 17.1071 
13 *246:85 *1190:A 28.1393 
14 *246:85 *1194:A 9.3 
15 *246:75 *246:105 12.2143 
16 *246:105 *246:109 12.4286 
17 *246:109 *1191:A 21.9786 
18 *246:109 *1192:A 16.6571 
19 *246:105 *1193:A 10.0321 
*END

*D_NET *247 0.0198855
*CONN
*I *1193:B I *D sky130_fd_sc_hd__nor2_1
*I *1192:B I *D sky130_fd_sc_hd__nor2_1
*I *1191:B I *D sky130_fd_sc_hd__nor2_1
*I *1194:B I *D sky130_fd_sc_hd__nor2_1
*I *1190:B I *D sky130_fd_sc_hd__nor2_1
*I *1195:B I *D sky130_fd_sc_hd__nor2_1
*I *1188:B I *D sky130_fd_sc_hd__nor2_1
*I *1189:B I *D sky130_fd_sc_hd__nor2_1
*I *1187:B I *D sky130_fd_sc_hd__nor2_1
*I *1186:B I *D sky130_fd_sc_hd__nor2_1
*I *1185:X O *D sky130_fd_sc_hd__clkbuf_4
*CAP
1 *1193:B 5.81339e-05
2 *1192:B 0.000209564
3 *1191:B 0.000226589
4 *1194:B 0
5 *1190:B 0.000422828
6 *1195:B 2.76557e-05
7 *1188:B 0
8 *1189:B 0.000401386
9 *1187:B 0
10 *1186:B 2.03441e-05
11 *1185:X 0.000175903
12 *247:111 0.00108145
13 *247:107 0.00115964
14 *247:79 0.000653393
15 *247:75 0.00109488
16 *247:64 0.000620403
17 *247:41 0.000578125
18 *247:26 0.000465364
19 *247:22 0.000976608
20 *247:10 0.00106888
21 *1189:B *1219:A 0.000153054
22 *1189:B *1237:D 8.00806e-05
23 *1189:B *1284:A 0.000162035
24 *1189:B *268:56 0.000600066
25 *1190:B *311:12 0
26 *1191:B *1241:CLK 0
27 *1192:B *267:79 9.90431e-05
28 *247:22 *1270:CLK 9.60939e-05
29 *247:22 *359:81 0.000165356
30 *247:41 *1284:A 9.14882e-05
31 *247:79 *1130:B1 0.000225885
32 *247:107 *255:16 3.47797e-05
33 *247:107 *267:56 0
34 *247:107 *267:69 0
35 *1099:A *247:22 9.90431e-05
36 *1132:A2 *247:75 6.19181e-05
37 *1133:A1 *247:107 0.000125724
38 *1133:S *247:107 0.000128154
39 *1138:A1 *1193:B 0
40 *1143:A *1191:B 0
41 *1143:A *1192:B 0
42 *1164:A1 *247:22 0.000106354
43 *1164:A2 *247:22 2.2351e-05
44 *1164:B1 *247:22 4.73044e-05
45 *1184:A *247:10 0.000100831
46 *1184:A *247:64 4.56437e-05
47 *1186:A *1186:B 5.7661e-06
48 *1186:A *247:41 3.99614e-06
49 *1188:A *247:26 5.38444e-06
50 *1189:A *1189:B 0.000601904
51 *1190:A *1190:B 0.000601226
52 *1191:A *1191:B 0.000209902
53 *1191:A *1192:B 0
54 *1192:A *1192:B 0
55 *1238:RESET_B *247:22 1.34631e-05
56 *1238:RESET_B *247:26 7.20217e-06
57 *1244:RESET_B *1190:B 0.000152333
58 *1245:RESET_B *247:64 0.000150618
59 *1270:D *247:22 1.56e-05
60 *133:90 *247:22 0.000358132
61 *133:101 *247:22 8.46829e-05
62 *192:16 *247:10 3.0285e-05
63 *192:16 *247:64 3.06406e-05
64 *192:48 *1195:B 2.89016e-05
65 *201:14 *247:10 0.000185643
66 *201:81 *1191:B 0.000414755
67 *203:12 *247:75 0.000180173
68 *203:14 *247:75 8.33559e-05
69 *203:18 *247:64 9.74684e-05
70 *203:18 *247:75 0.000106552
71 *203:123 *247:75 0.000125674
72 *203:123 *247:107 3.57844e-05
73 *242:10 *247:79 0.000227322
74 *246:24 *247:22 0.0014731
75 *246:24 *247:26 4.73286e-05
76 *246:24 *247:64 7.79781e-06
77 *246:33 *247:26 0.000224346
78 *246:33 *247:41 5.62995e-05
79 *246:48 *1189:B 5.80706e-06
80 *246:48 *247:41 0.000166012
81 *246:66 *247:64 0.000130283
82 *246:75 *247:64 4.1331e-06
83 *246:75 *247:75 0.000291845
84 *246:85 *247:79 0.000992213
85 *246:105 *1193:B 1.52978e-05
86 *246:105 *247:107 0.000189134
87 *246:109 *247:107 9.71197e-05
88 *246:109 *247:111 0.00074169
*RES
1 *1185:X *247:10 16.9071 
2 *247:10 *247:22 26.6786 
3 *247:22 *247:26 5.48214 
4 *247:26 *1186:B 9.72857 
5 *247:26 *247:41 9.35714 
6 *247:41 *1187:B 13.8 
7 *247:41 *1189:B 28.4964 
8 *247:22 *1188:B 9.3 
9 *247:10 *247:64 5.58929 
10 *247:64 *1195:B 14.3357 
11 *247:64 *247:75 11.9643 
12 *247:75 *247:79 14.0714 
13 *247:79 *1190:B 29.3357 
14 *247:79 *1194:B 9.3 
15 *247:75 *247:107 13.4821 
16 *247:107 *247:111 13.25 
17 *247:111 *1191:B 20.6036 
18 *247:111 *1192:B 17.9071 
19 *247:107 *1193:B 19.3357 
*END

*D_NET *248 0.0181643
*CONN
*I *1198:A I *D sky130_fd_sc_hd__nor2_1
*I *1199:A I *D sky130_fd_sc_hd__nor2_1
*I *1200:A I *D sky130_fd_sc_hd__nor2_1
*I *1207:A I *D sky130_fd_sc_hd__nor2_1
*I *1201:A I *D sky130_fd_sc_hd__nor2_1
*I *1204:A I *D sky130_fd_sc_hd__nor2_1
*I *1205:A I *D sky130_fd_sc_hd__nor2_1
*I *1202:A I *D sky130_fd_sc_hd__nor2_1
*I *1203:A I *D sky130_fd_sc_hd__nor2_1
*I *1206:A I *D sky130_fd_sc_hd__nor2_1
*I *1196:X O *D sky130_fd_sc_hd__clkbuf_4
*CAP
1 *1198:A 0.000120024
2 *1199:A 6.45574e-05
3 *1200:A 0.000306046
4 *1207:A 0
5 *1201:A 0
6 *1204:A 5.42888e-05
7 *1205:A 0.000399398
8 *1202:A 0
9 *1203:A 9.97069e-05
10 *1206:A 2.06112e-05
11 *1196:X 0
12 *248:116 0.000387631
13 *248:73 0.000971762
14 *248:65 0.00109158
15 *248:41 0.000179361
16 *248:35 0.00203903
17 *248:20 0.00248311
18 *248:12 0.0011572
19 *248:10 0.000528752
20 *248:6 0.000345182
21 *1198:A *1198:B 0.000213635
22 *1199:A *1199:B 0.000145009
23 *1199:A *360:18 9.41642e-05
24 *1200:A *1268:CLK 5.38242e-05
25 *1200:A *265:71 0
26 *1200:A *265:73 7.15846e-05
27 *1203:A *1202:B 1.61893e-05
28 *1203:A *249:89 2.77173e-05
29 *1203:A *249:100 3.46775e-05
30 *1204:A *1204:B 5.49544e-05
31 *1205:A *1205:B 0.000739187
32 *1205:A *249:122 3.34366e-05
33 *1205:A *270:75 0
34 *1206:A *249:33 3.99614e-06
35 *248:10 *1268:CLK 0.00032246
36 *248:10 *249:59 0.000394719
37 *248:10 *250:18 0
38 *248:12 *249:33 0
39 *248:12 *249:59 4.66203e-05
40 *248:12 *250:18 0
41 *248:12 *265:71 0
42 *248:20 *1060:A0 0.000138328
43 *248:20 *1060:A1 2.28499e-05
44 *248:20 *1217:B 0.000312209
45 *248:20 *1300:A 5.7616e-05
46 *248:20 *1342:A 9.30093e-05
47 *248:20 *249:33 7.49387e-06
48 *248:20 *265:37 0
49 *248:20 *265:54 0
50 *248:20 *265:71 0
51 *248:20 *301:23 2.14658e-05
52 *248:35 *1206:B 5.68713e-05
53 *248:35 *249:14 0.000971832
54 *248:35 *249:33 1.21289e-05
55 *248:35 *249:89 0.00121965
56 *248:41 *1349:A 1.96737e-05
57 *248:41 *249:89 2.89114e-05
58 *248:65 *1349:A 0.000170523
59 *248:73 *1043:C 0.000151333
60 *248:73 *249:122 0
61 *248:73 *269:10 0.000388132
62 *248:73 *270:12 0
63 *248:73 *270:75 2.00751e-05
64 *248:73 *271:47 0
65 *248:116 *1198:B 5.41794e-05
66 *248:116 *1268:CLK 5.7616e-05
67 *248:116 *249:59 0.000384455
68 *1083:A *248:20 0
69 *1249:RESET_B *248:73 6.48957e-05
70 *1255:D *248:20 4.57445e-05
71 *1255:RESET_B *248:20 0.000161993
72 *131:14 *1199:A 0.000358965
73 *131:14 *248:116 0
74 *131:16 *248:116 0
75 *133:26 *1206:A 0
76 *133:26 *248:20 7.12625e-05
77 *133:26 *248:35 3.18676e-05
78 *133:34 *248:20 0.000166416
79 *154:14 *1205:A 0
80 *165:28 *248:20 0.000574427
81 *186:10 *1198:A 0
*RES
1 *1196:X *248:6 13.8 
2 *248:6 *248:10 5.51786 
3 *248:10 *248:12 1.64286 
4 *248:12 *248:20 28.5179 
5 *248:20 *1206:A 9.72857 
6 *248:20 *248:35 27.6607 
7 *248:35 *248:41 6.07143 
8 *248:41 *1203:A 11.5143 
9 *248:41 *1202:A 9.3 
10 *248:35 *248:65 14.5714 
11 *248:65 *248:73 20.6071 
12 *248:73 *1205:A 28.1393 
13 *248:73 *1204:A 10.2464 
14 *248:65 *1201:A 9.3 
15 *248:12 *1207:A 13.8 
16 *248:10 *1200:A 17.9429 
17 *248:6 *248:116 5.58929 
18 *248:116 *1199:A 17.2107 
19 *248:116 *1198:A 16.6571 
*END

*D_NET *249 0.0186665
*CONN
*I *1205:B I *D sky130_fd_sc_hd__nor2_1
*I *1204:B I *D sky130_fd_sc_hd__nor2_1
*I *1201:B I *D sky130_fd_sc_hd__nor2_1
*I *1203:B I *D sky130_fd_sc_hd__nor2_1
*I *1202:B I *D sky130_fd_sc_hd__nor2_1
*I *1198:B I *D sky130_fd_sc_hd__nor2_1
*I *1199:B I *D sky130_fd_sc_hd__nor2_1
*I *1200:B I *D sky130_fd_sc_hd__nor2_1
*I *1207:B I *D sky130_fd_sc_hd__nor2_1
*I *1206:B I *D sky130_fd_sc_hd__nor2_1
*I *1197:X O *D sky130_fd_sc_hd__clkbuf_4
*CAP
1 *1205:B 0.000400643
2 *1204:B 0.000105626
3 *1201:B 8.49844e-05
4 *1203:B 0
5 *1202:B 1.36355e-05
6 *1198:B 0.000267574
7 *1199:B 0.00031006
8 *1200:B 0.000364221
9 *1207:B 0
10 *1206:B 4.75682e-06
11 *1197:X 0
12 *249:122 0.000967381
13 *249:111 0.00112297
14 *249:100 0.000636625
15 *249:89 0.000505637
16 *249:59 0.000934128
17 *249:42 0.000863039
18 *249:33 0.00161377
19 *249:14 0.00167321
20 *249:4 0.000629253
21 *1198:B *360:18 2.24646e-05
22 *1199:B *360:18 5.33005e-05
23 *249:33 *1060:A0 0
24 *249:33 *1060:A1 6.05161e-06
25 *249:33 *1300:A 0
26 *249:33 *1342:A 0
27 *249:33 *250:18 0.000767524
28 *249:33 *301:23 0.000184532
29 *249:59 *1103:A 0.000151333
30 *249:59 *265:71 6.42338e-05
31 *249:59 *360:18 0.000126439
32 *249:111 *270:12 0.000153047
33 *249:111 *271:10 0
34 *249:122 *270:12 0.00052583
35 *1062:S *249:33 0
36 *1083:A *249:33 5.57727e-05
37 *1096:A *249:89 5.49489e-05
38 *1198:A *1198:B 0.000213635
39 *1199:A *1199:B 0.000145009
40 *1203:A *1202:B 1.61893e-05
41 *1203:A *249:89 2.77173e-05
42 *1203:A *249:100 3.46775e-05
43 *1204:A *1204:B 5.49544e-05
44 *1205:A *1205:B 0.000739187
45 *1205:A *249:122 3.34366e-05
46 *1206:A *249:33 3.99614e-06
47 *1246:RESET_B *1198:B 3.18676e-05
48 *1249:RESET_B *1201:B 2.27416e-05
49 *1250:RESET_B *249:89 1.24368e-05
50 *1250:RESET_B *249:100 6.87574e-05
51 *1250:RESET_B *249:111 1.56e-05
52 *1252:RESET_B *1205:B 5.1985e-05
53 *1255:RESET_B *249:33 0
54 *131:14 *1199:B 3.23989e-05
55 *133:14 *249:14 5.76121e-05
56 *133:14 *249:89 0.000155738
57 *133:26 *249:14 0.000676471
58 *133:26 *249:33 0.00027032
59 *133:34 *249:33 0.000161937
60 *165:28 *249:33 0
61 *186:22 *1198:B 0
62 *248:10 *249:59 0.000394719
63 *248:12 *249:33 0
64 *248:12 *249:59 4.66203e-05
65 *248:20 *249:33 7.49387e-06
66 *248:35 *1206:B 5.68713e-05
67 *248:35 *249:14 0.000971832
68 *248:35 *249:33 1.21289e-05
69 *248:35 *249:89 0.00121965
70 *248:41 *249:89 2.89114e-05
71 *248:73 *249:122 0
72 *248:116 *1198:B 5.41794e-05
73 *248:116 *249:59 0.000384455
*RES
1 *1197:X *249:4 9.3 
2 *249:4 *249:14 10.6786 
3 *249:14 *1206:B 9.83571 
4 *249:14 *249:33 35.0714 
5 *249:33 *1207:B 9.3 
6 *249:33 *249:42 2.19643 
7 *249:42 *1200:B 23.6571 
8 *249:42 *249:59 15.5536 
9 *249:59 *1199:B 18.3536 
10 *249:59 *1198:B 19.4786 
11 *249:4 *249:89 13.2857 
12 *249:89 *1202:B 9.72857 
13 *249:89 *249:100 1.78571 
14 *249:100 *1203:B 9.3 
15 *249:100 *249:111 14.9464 
16 *249:111 *1201:B 15.1571 
17 *249:111 *249:122 10.1429 
18 *249:122 *1204:B 15.5857 
19 *249:122 *1205:B 23.8714 
*END

*D_NET *250 0.024438
*CONN
*I *1221:A I *D sky130_fd_sc_hd__nor2_1
*I *1218:A I *D sky130_fd_sc_hd__nor2_1
*I *1213:A I *D sky130_fd_sc_hd__nor2_1
*I *1214:A I *D sky130_fd_sc_hd__nor2_1
*I *1211:A I *D sky130_fd_sc_hd__nor2_1
*I *1212:A I *D sky130_fd_sc_hd__nor2_1
*I *1215:A I *D sky130_fd_sc_hd__nor2_1
*I *1217:A I *D sky130_fd_sc_hd__nor2_1
*I *1210:A I *D sky130_fd_sc_hd__nor2_1
*I *1216:A I *D sky130_fd_sc_hd__nor2_1
*I *1208:X O *D sky130_fd_sc_hd__clkbuf_4
*CAP
1 *1221:A 0
2 *1218:A 0
3 *1213:A 8.16516e-05
4 *1214:A 0.000397324
5 *1211:A 1.98209e-05
6 *1212:A 3.04135e-05
7 *1215:A 0.000380253
8 *1217:A 0
9 *1210:A 0.00024933
10 *1216:A 0
11 *1208:X 4.95281e-05
12 *250:146 0.000880078
13 *250:133 0.000878485
14 *250:103 0.000836227
15 *250:99 0.00211987
16 *250:91 0.00237051
17 *250:75 0.00249838
18 *250:36 0.000899461
19 *250:18 0.00132538
20 *250:8 0.0020894
21 *1210:A *1210:B 0.000711803
22 *1212:A *1212:B 5.33005e-05
23 *1213:A *1213:B 5.7661e-06
24 *1213:A *251:114 1.56e-05
25 *1214:A *1066:A1 5.52238e-05
26 *1214:A *313:41 0
27 *1214:A *348:14 0.000820959
28 *1215:A *1215:B 0.00057966
29 *1215:A *1337:A 0
30 *250:18 *1268:CLK 0
31 *250:36 *1210:B 2.74192e-05
32 *250:36 *1216:B 5.71472e-05
33 *250:36 *1217:B 0.000373212
34 *250:36 *1281:A 0.000382581
35 *250:36 *1335:A 3.90513e-05
36 *250:36 *251:29 0
37 *250:36 *265:22 0
38 *250:36 *300:16 6.97409e-05
39 *250:36 *301:23 4.15432e-05
40 *250:75 *1059:A 5.92418e-05
41 *250:75 *1110:A1 0.00016222
42 *250:75 *1110:B1 0.000238937
43 *250:75 *1268:CLK 0
44 *250:75 *357:19 9.9305e-05
45 *250:75 *359:40 2.87485e-05
46 *250:91 *1218:B 8.23597e-06
47 *250:91 *1221:B 9.25014e-06
48 *250:91 *271:76 2.89114e-05
49 *250:91 *305:28 0.000159007
50 *250:99 *1072:A1 6.06154e-05
51 *250:99 *1218:B 3.50544e-05
52 *250:99 *1252:CLK 5.22927e-05
53 *250:99 *271:76 0.000146047
54 *250:103 *1072:S 0
55 *250:103 *1215:B 7.15449e-05
56 *250:103 *1257:CLK 0
57 *250:103 *251:80 0.00072695
58 *250:103 *251:82 0.000128154
59 *250:103 *266:120 0
60 *250:133 *1072:A0 5.57541e-05
61 *250:133 *1072:A1 6.30282e-05
62 *250:133 *1072:S 6.70344e-05
63 *250:146 *1211:B 5.71472e-05
64 *250:146 *313:41 0
65 *250:146 *348:14 0.000706207
66 *1069:A *1213:A 9.8742e-05
67 *1069:A *1214:A 1.02504e-05
68 *1069:A *250:146 6.81083e-05
69 *1073:A *250:133 0.000143651
70 *1083:B *250:18 0
71 *1091:A1 *250:99 5.14195e-06
72 *1163:C *250:75 4.89698e-05
73 *1163:D *250:75 9.90367e-05
74 *1163:D *250:91 4.38265e-05
75 *1165:B1 *250:91 0.000115369
76 *1165:B2 *250:91 5.10457e-05
77 *1208:A *250:8 2.51343e-06
78 *1208:A *250:75 0.000103267
79 *1252:D *250:99 5.53542e-05
80 *1257:D *250:133 2.78576e-05
81 *1257:RESET_B *250:146 0.000253277
82 *1258:RESET_B *250:103 0.000177234
83 *1259:D *1214:A 0.000128161
84 *1260:RESET_B *1214:A 0.000100831
85 *1261:RESET_B *1215:A 1.92905e-05
86 *1262:RESET_B *250:36 0.000176226
87 *1263:RESET_B *250:18 5.49544e-05
88 *1263:RESET_B *250:36 3.38774e-05
89 *1264:RESET_B *250:99 9.90431e-05
90 *1266:RESET_B *250:91 3.92757e-05
91 *1268:D *250:75 0.000223053
92 *133:34 *250:18 0
93 *133:34 *250:36 3.67548e-05
94 *133:34 *250:75 0
95 *154:14 *250:99 0.000138881
96 *157:50 *250:91 1.36681e-05
97 *165:28 *250:18 0
98 *187:14 *250:91 0
99 *248:10 *250:18 0
100 *248:12 *250:18 0
101 *249:33 *250:18 0.000767524
*RES
1 *1208:X *250:8 14.3357 
2 *250:8 *250:18 19.4821 
3 *250:18 *250:36 24.4286 
4 *250:36 *1216:A 9.3 
5 *250:36 *1210:A 15.9964 
6 *250:18 *1217:A 9.3 
7 *250:8 *250:75 26.6429 
8 *250:75 *250:91 33.7143 
9 *250:91 *250:99 17.8393 
10 *250:99 *250:103 16.1607 
11 *250:103 *1215:A 22.6393 
12 *250:103 *1212:A 14.3357 
13 *250:99 *250:133 7.55357 
14 *250:133 *1211:A 9.72857 
15 *250:133 *250:146 16.0179 
16 *250:146 *1214:A 24.7821 
17 *250:146 *1213:A 15.6036 
18 *250:91 *1218:A 9.3 
19 *250:75 *1221:A 9.3 
*END

*D_NET *251 0.0237943
*CONN
*I *1221:B I *D sky130_fd_sc_hd__nor2_1
*I *1211:B I *D sky130_fd_sc_hd__nor2_1
*I *1213:B I *D sky130_fd_sc_hd__nor2_1
*I *1214:B I *D sky130_fd_sc_hd__nor2_1
*I *1212:B I *D sky130_fd_sc_hd__nor2_1
*I *1215:B I *D sky130_fd_sc_hd__nor2_1
*I *1218:B I *D sky130_fd_sc_hd__nor2_1
*I *1210:B I *D sky130_fd_sc_hd__nor2_1
*I *1216:B I *D sky130_fd_sc_hd__nor2_1
*I *1217:B I *D sky130_fd_sc_hd__nor2_1
*I *1209:X O *D sky130_fd_sc_hd__clkbuf_4
*CAP
1 *1221:B 0.000108133
2 *1211:B 0.000805134
3 *1213:B 5.7365e-05
4 *1214:B 0.000315733
5 *1212:B 0.000113042
6 *1215:B 0.000303868
7 *1218:B 3.31679e-05
8 *1210:B 0.000162478
9 *1216:B 9.58911e-06
10 *1217:B 0.000365794
11 *1209:X 0
12 *251:114 0.00102563
13 *251:82 0.000450284
14 *251:80 0.00106557
15 *251:76 0.00289123
16 *251:61 0.00266837
17 *251:55 0.00249334
18 *251:29 0.00055068
19 *251:21 0.00183504
20 *251:4 0.000365794
21 *1210:B *300:16 0.000841324
22 *1214:B *1066:A1 9.71197e-05
23 *1214:B *288:18 0
24 *1214:B *337:12 0.000251243
25 *1214:B *348:14 0.000293657
26 *1216:B *300:16 2.28499e-05
27 *1218:B *271:76 3.20982e-05
28 *1221:B *274:44 0
29 *251:29 *1281:A 0
30 *251:29 *265:22 0.000242906
31 *251:55 *1082:A1 0.000196785
32 *251:55 *1281:A 0
33 *251:55 *265:12 0.000270288
34 *251:55 *265:22 0.000126439
35 *251:55 *293:46 0.000123912
36 *251:55 *357:25 0.00018372
37 *251:55 *357:31 0.000340001
38 *251:61 *274:44 0
39 *251:80 *1072:S 0
40 *251:114 *266:114 9.23851e-05
41 *251:114 *297:8 0.000209956
42 *1057:A2 *251:61 2.84308e-05
43 *1069:A *251:114 4.87854e-05
44 *1071:A *1215:B 8.49318e-05
45 *1071:A *251:80 0.000140361
46 *1071:A *251:82 0.000119618
47 *1076:A *251:55 3.75052e-05
48 *1085:A1 *251:55 1.18554e-05
49 *1086:B2 *251:55 0.000251915
50 *1163:D *1221:B 1.08359e-05
51 *1210:A *1210:B 0.000711803
52 *1212:A *1212:B 5.33005e-05
53 *1213:A *1213:B 5.7661e-06
54 *1213:A *251:114 1.56e-05
55 *1215:A *1215:B 0.00057966
56 *1252:RESET_B *251:80 0
57 *1254:D *251:55 6.39901e-05
58 *1254:RESET_B *251:55 0
59 *1259:RESET_B *1213:B 4.27935e-05
60 *1259:RESET_B *1214:B 0.000177934
61 *1259:RESET_B *251:114 5.33005e-05
62 *133:34 *1217:B 0.000150618
63 *133:34 *251:55 0
64 *155:6 *251:55 0.000122586
65 *155:51 *251:55 0.000113235
66 *155:55 *1221:B 6.5185e-05
67 *155:55 *251:61 2.11362e-05
68 *161:50 *251:55 7.39637e-05
69 *165:8 *251:55 0
70 *187:14 *1218:B 8.23597e-06
71 *236:14 *251:61 4.97413e-05
72 *248:20 *1217:B 0.000312209
73 *250:36 *1210:B 2.74192e-05
74 *250:36 *1216:B 5.71472e-05
75 *250:36 *1217:B 0.000373212
76 *250:36 *251:29 0
77 *250:91 *1218:B 8.23597e-06
78 *250:91 *1221:B 9.25014e-06
79 *250:99 *1218:B 3.50544e-05
80 *250:103 *1215:B 7.15449e-05
81 *250:103 *251:80 0.00072695
82 *250:103 *251:82 0.000128154
83 *250:146 *1211:B 5.71472e-05
*RES
1 *1209:X *251:4 9.3 
2 *251:4 *1217:B 25.425 
3 *251:4 *251:21 4.5 
4 *251:21 *251:29 11.0536 
5 *251:29 *1216:B 9.83571 
6 *251:29 *1210:B 18.0857 
7 *251:21 *251:55 37.3393 
8 *251:55 *251:61 5.69489 
9 *251:61 *1218:B 18.0761 
10 *251:61 *251:76 2.78553 
11 *251:76 *251:80 13.7046 
12 *251:80 *251:82 1.64286 
13 *251:82 *1215:B 21.4607 
14 *251:82 *1212:B 15.9071 
15 *251:80 *251:114 15.8571 
16 *251:114 *1214:B 28.4786 
17 *251:114 *1213:B 10.5679 
18 *251:76 *1211:B 19.3667 
19 *251:55 *1221:B 15.9786 
*END

*D_NET *252 0.0016402
*CONN
*I *1283:A I *D sky130_fd_sc_hd__clkbuf_16
*I *1219:X O *D sky130_fd_sc_hd__buf_1
*CAP
1 *1283:A 0.000515884
2 *1219:X 0.000515884
3 *1283:A *1152:B1 7.83587e-05
4 *1283:A *1279:CLK 0
5 *1279:D *1283:A 0
6 *134:50 *1283:A 0.000116427
7 *134:60 *1283:A 0.000286706
8 *134:119 *1283:A 6.97972e-05
9 *138:47 *1283:A 0
10 *241:22 *1283:A 5.71472e-05
11 *242:10 *1283:A 0
*RES
1 *1219:X *1283:A 39.1893 
*END

*D_NET *253 0.00767797
*CONN
*I *1135:A2 I *D sky130_fd_sc_hd__a21oi_1
*I *1130:A3 I *D sky130_fd_sc_hd__a31o_1
*I *1106:D I *D sky130_fd_sc_hd__and4_1
*I *1136:A3 I *D sky130_fd_sc_hd__a31o_1
*I *1168:A0 I *D sky130_fd_sc_hd__mux2_1
*I *1141:A I *D sky130_fd_sc_hd__xnor2_1
*I *1146:A0 I *D sky130_fd_sc_hd__mux2_1
*I *1144:A I *D sky130_fd_sc_hd__inv_2
*I *1241:Q O *D sky130_fd_sc_hd__dfrtp_4
*CAP
1 *1135:A2 0.000123866
2 *1130:A3 0
3 *1106:D 0.000244851
4 *1136:A3 0
5 *1168:A0 0.000335482
6 *1141:A 3.90434e-05
7 *1146:A0 0.000185191
8 *1144:A 0.000269504
9 *1241:Q 0
10 *253:71 0.000275307
11 *253:69 0.000339743
12 *253:58 0.000488247
13 *253:36 0.000502972
14 *253:12 0.000794493
15 *253:10 0.000643929
16 *253:4 0.000478511
17 *1106:D *1135:A1 1.02504e-05
18 *1106:D *1171:A1 1.02504e-05
19 *1106:D *254:28 0.000368096
20 *1106:D *254:30 0.000145753
21 *1106:D *254:71 5.59013e-05
22 *1106:D *255:57 0
23 *1135:A2 *1135:A1 0.000129816
24 *1144:A *1145:A0 0
25 *1144:A *1328:A 6.30292e-05
26 *1144:A *352:12 2.89016e-05
27 *1146:A0 *293:42 0.000184745
28 *253:10 *1241:CLK 0.000267731
29 *253:12 *1168:A1 0
30 *253:12 *293:23 0
31 *253:36 *1168:A1 0
32 *253:58 *254:20 5.52302e-05
33 *253:69 *1130:B1 0.000136951
34 *253:69 *1136:A1 2.6231e-05
35 *253:69 *254:20 2.39313e-05
36 *253:69 *254:26 7.15905e-06
37 *253:71 *1135:A1 4.56437e-05
38 *1131:B *1106:D 0
39 *1132:B2 *1106:D 0.000113372
40 *1132:B2 *253:71 4.1331e-06
41 *1136:B1 *253:69 5.20669e-05
42 *1137:A1_N *1135:A2 1.97695e-05
43 *1137:A2_N *253:58 4.43256e-05
44 *1137:A2_N *253:69 0.000143651
45 *1146:S *1146:A0 0.000146523
46 *1168:S *1141:A 9.83442e-05
47 *1168:S *1168:A0 0.000274288
48 *1241:RESET_B *253:10 1.69961e-05
49 *1241:RESET_B *253:58 0.000272496
50 *197:38 *1106:D 3.34295e-05
51 *203:123 *1135:A2 2.89114e-05
52 *227:12 *1144:A 0.000148903
53 *246:105 *1135:A2 0
54 *246:105 *253:71 0
*RES
1 *1241:Q *253:4 9.3 
2 *253:4 *253:10 7.92857 
3 *253:10 *253:12 5.89286 
4 *253:12 *1144:A 19.0143 
5 *253:12 *1146:A0 18.05 
6 *253:10 *253:36 2.25 
7 *253:36 *1141:A 14.7464 
8 *253:36 *1168:A0 18.3536 
9 *253:4 *253:58 6.69643 
10 *253:58 *1136:A3 9.3 
11 *253:58 *253:69 8.75 
12 *253:69 *253:71 0.732143 
13 *253:71 *1106:D 20.9071 
14 *253:71 *1130:A3 13.8 
15 *253:69 *1135:A2 16.8357 
*END

*D_NET *254 0.00969114
*CONN
*I *1142:A0 I *D sky130_fd_sc_hd__mux2_1
*I *1137:B1 I *D sky130_fd_sc_hd__a2bb2o_1
*I *1136:A2 I *D sky130_fd_sc_hd__a31o_1
*I *1135:A1 I *D sky130_fd_sc_hd__a21oi_1
*I *1130:A2 I *D sky130_fd_sc_hd__a31o_1
*I *1140:A I *D sky130_fd_sc_hd__nand2_1
*I *1106:C I *D sky130_fd_sc_hd__and4_1
*I *1171:A1 I *D sky130_fd_sc_hd__mux2_1
*I *1242:Q O *D sky130_fd_sc_hd__dfrtp_4
*CAP
1 *1142:A0 0.000198161
2 *1137:B1 0
3 *1136:A2 0
4 *1135:A1 0.000112326
5 *1130:A2 0
6 *1140:A 0.000511442
7 *1106:C 0
8 *1171:A1 0.000411014
9 *1242:Q 0.000488365
10 *254:71 0.000139952
11 *254:30 0.000500834
12 *254:28 0.000730383
13 *254:26 0.000409133
14 *254:20 0.000483939
15 *254:14 0.00039428
16 *254:12 0.000849253
17 *1135:A1 *255:28 1.02504e-05
18 *1135:A1 *255:32 0.000209491
19 *1140:A *293:42 0.000789046
20 *1171:A1 *1127:A1 9.99989e-05
21 *1171:A1 *1288:A 0.000183027
22 *1171:A1 *352:12 0.000336399
23 *254:12 *255:28 7.83296e-05
24 *254:14 *255:28 0
25 *254:20 *255:32 0
26 *254:26 *1136:A1 0.000262337
27 *254:26 *255:51 4.18895e-05
28 *254:71 *255:32 1.02504e-05
29 *1106:D *1135:A1 1.02504e-05
30 *1106:D *1171:A1 1.02504e-05
31 *1106:D *254:28 0.000368096
32 *1106:D *254:30 0.000145753
33 *1106:D *254:71 5.59013e-05
34 *1126:A2 *1140:A 6.20656e-05
35 *1126:B1 *1140:A 0
36 *1131:A *1140:A 8.76257e-05
37 *1135:A2 *1135:A1 0.000129816
38 *1136:B1 *254:28 2.34204e-05
39 *1136:B1 *254:71 1.09026e-05
40 *1137:A2_N *254:14 0
41 *1137:A2_N *254:20 0
42 *1138:A1 *254:12 0
43 *1139:A *254:12 0.000129868
44 *1146:S *1140:A 5.33433e-05
45 *1171:S *1171:A1 9.71197e-05
46 *1191:A *254:12 5.42055e-05
47 *1191:A *254:14 4.46186e-06
48 *1191:A *254:20 0
49 *1192:A *254:12 3.79197e-05
50 *1242:RESET_B *254:12 4.57445e-05
51 *186:76 *1140:A 0.000316416
52 *186:76 *1171:A1 0
53 *186:76 *254:30 0
54 *186:80 *254:28 0.000103739
55 *192:56 *1140:A 0
56 *192:60 *1140:A 1.8461e-05
57 *197:18 *1140:A 0
58 *197:38 *1171:A1 0.000105047
59 *201:66 *1140:A 0.000119193
60 *201:81 *1142:A0 5.33005e-05
61 *201:88 *1142:A0 0.000254049
62 *203:123 *1135:A1 1.21258e-05
63 *246:105 *1135:A1 0
64 *253:58 *254:20 5.52302e-05
65 *253:69 *254:20 2.39313e-05
66 *253:69 *254:26 7.15905e-06
67 *253:71 *1135:A1 4.56437e-05
*RES
1 *1242:Q *254:12 23.9161 
2 *254:12 *254:14 2.5625 
3 *254:14 *254:20 8 
4 *254:20 *254:26 8.23214 
5 *254:26 *254:28 4.67857 
6 *254:28 *254:30 1.94643 
7 *254:30 *1171:A1 23.7643 
8 *254:30 *1106:C 13.8 
9 *254:28 *1140:A 35.7107 
10 *254:26 *254:71 0.732143 
11 *254:71 *1130:A2 13.8 
12 *254:71 *1135:A1 17.1929 
13 *254:20 *1136:A2 9.3 
14 *254:14 *1137:B1 13.8 
15 *254:12 *1142:A0 17.6214 
*END

*D_NET *255 0.00826427
*CONN
*I *1138:A0 I *D sky130_fd_sc_hd__mux2_1
*I *1135:B1 I *D sky130_fd_sc_hd__a21oi_1
*I *1130:A1 I *D sky130_fd_sc_hd__a31o_1
*I *1132:A1 I *D sky130_fd_sc_hd__a22o_1
*I *1173:A1 I *D sky130_fd_sc_hd__mux2_1
*I *1171:A0 I *D sky130_fd_sc_hd__mux2_1
*I *1106:B I *D sky130_fd_sc_hd__and4_1
*I *1136:A1 I *D sky130_fd_sc_hd__a31o_1
*I *1243:Q O *D sky130_fd_sc_hd__dfrtp_4
*CAP
1 *1138:A0 0
2 *1135:B1 0
3 *1130:A1 0
4 *1132:A1 0
5 *1173:A1 6.50409e-05
6 *1171:A0 0.000307246
7 *1106:B 0.000256169
8 *1136:A1 5.18709e-05
9 *1243:Q 0.000558001
10 *255:66 0.00063049
11 *255:57 0.000702763
12 *255:51 0.000329032
13 *255:34 0.000209275
14 *255:32 0.00015228
15 *255:28 0.000473754
16 *255:16 0.000896238
17 *1136:A1 *1130:B1 3.18676e-05
18 *1171:A0 *1288:A 0.000141734
19 *1173:A1 *256:24 8.59075e-05
20 *255:51 *1130:B1 0.000233927
21 *255:66 *256:24 0.000210751
22 *1106:D *255:57 0
23 *1107:A *1106:B 2.44318e-05
24 *1107:A *255:66 2.14658e-05
25 *1131:B *255:57 0.000126439
26 *1132:B1 *255:51 0.000143295
27 *1132:B2 *255:57 0.000101076
28 *1135:A1 *255:28 1.02504e-05
29 *1135:A1 *255:32 0.000209491
30 *1136:B1 *1136:A1 9.83388e-05
31 *1136:B1 *255:32 4.46186e-06
32 *1138:A1 *255:16 9.87617e-05
33 *1138:A1 *255:28 0.000145852
34 *1138:S *255:16 5.52302e-05
35 *1138:S *255:28 0.000147131
36 *1243:RESET_B *255:16 0.00010096
37 *197:6 *1106:B 0.000181796
38 *197:18 *1106:B 0.000136951
39 *203:12 *1171:A0 4.02462e-05
40 *203:14 *1171:A0 8.68569e-05
41 *203:18 *1171:A0 3.92757e-05
42 *246:75 *255:57 0.000464535
43 *246:85 *255:51 0
44 *246:105 *255:28 0
45 *246:105 *255:57 2.48938e-05
46 *246:109 *255:16 0.000212366
47 *247:107 *255:16 3.47797e-05
48 *253:69 *1136:A1 2.6231e-05
49 *254:12 *255:28 7.83296e-05
50 *254:14 *255:28 0
51 *254:20 *255:32 0
52 *254:26 *1136:A1 0.000262337
53 *254:26 *255:51 4.18895e-05
54 *254:71 *255:32 1.02504e-05
*RES
1 *1243:Q *255:16 29.2464 
2 *255:16 *255:28 11.625 
3 *255:28 *255:32 7.35714 
4 *255:32 *255:34 0.428571 
5 *255:34 *1136:A1 11.9071 
6 *255:34 *255:51 4.39286 
7 *255:51 *255:57 15.1964 
8 *255:57 *1106:B 12.7107 
9 *255:57 *255:66 3.41071 
10 *255:66 *1171:A0 23.7286 
11 *255:66 *1173:A1 10.2464 
12 *255:51 *1132:A1 9.3 
13 *255:32 *1130:A1 9.3 
14 *255:28 *1135:B1 13.8 
15 *255:16 *1138:A0 9.3 
*END

*D_NET *256 0.00803668
*CONN
*I *1133:A0 I *D sky130_fd_sc_hd__mux2_1
*I *1130:B1 I *D sky130_fd_sc_hd__a31o_1
*I *1175:A1 I *D sky130_fd_sc_hd__mux2_1
*I *1173:A0 I *D sky130_fd_sc_hd__mux2_1
*I *1127:A1 I *D sky130_fd_sc_hd__a22o_1
*I *1106:A I *D sky130_fd_sc_hd__and4_1
*I *1244:Q O *D sky130_fd_sc_hd__dfrtp_2
*CAP
1 *1133:A0 0.000211624
2 *1130:B1 0.000458317
3 *1175:A1 0
4 *1173:A0 0
5 *1127:A1 0.000334843
6 *1106:A 1.40568e-05
7 *1244:Q 0.000662585
8 *256:53 0.000458317
9 *256:24 0.000727585
10 *256:16 0.000719592
11 *256:10 0.000437641
12 *256:6 0.000970942
13 *1106:A *257:88 5.52238e-05
14 *1127:A1 *1245:CLK 8.07879e-05
15 *1127:A1 *352:12 0.000105463
16 *1133:A0 *1244:CLK 3.08664e-05
17 *256:6 *1244:CLK 8.25843e-06
18 *256:6 *311:12 4.05947e-05
19 *256:10 *267:56 0.000119046
20 *256:16 *267:56 0.000519019
21 *256:24 *257:88 0.000255972
22 *1107:A *256:24 0.000227532
23 *1127:A2 *1127:A1 5.52302e-05
24 *1128:A1 *1127:A1 0
25 *1132:A2 *1130:B1 5.33005e-05
26 *1133:A1 *1130:B1 6.75903e-05
27 *1133:S *1133:A0 2.44266e-05
28 *1134:A *1133:A0 2.07878e-05
29 *1136:A1 *1130:B1 3.18676e-05
30 *1171:A1 *1127:A1 9.99989e-05
31 *1173:A1 *256:24 8.59075e-05
32 *1173:S *256:24 5.03772e-05
33 *1175:S *256:16 0.000130453
34 *197:6 *256:24 1.5424e-05
35 *197:18 *1106:A 2.89016e-05
36 *197:18 *256:24 9.47028e-05
37 *203:12 *256:16 0
38 *203:123 *1133:A0 6.05161e-06
39 *203:123 *256:10 0
40 *246:85 *1130:B1 2.58821e-05
41 *247:79 *1130:B1 0.000225885
42 *253:69 *1130:B1 0.000136951
43 *255:51 *1130:B1 0.000233927
44 *255:66 *256:24 0.000210751
*RES
1 *1244:Q *256:6 16.8179 
2 *256:6 *256:10 6.14286 
3 *256:10 *256:16 12.25 
4 *256:16 *256:24 9.625 
5 *256:24 *1106:A 9.83571 
6 *256:24 *1127:A1 24.6929 
7 *256:16 *1173:A0 9.3 
8 *256:10 *256:53 4.5 
9 *256:53 *1175:A1 9.3 
10 *256:53 *1130:B1 19.4429 
11 *256:6 *1133:A0 13.4607 
*END

*D_NET *257 0.0123511
*CONN
*I *1175:A0 I *D sky130_fd_sc_hd__mux2_1
*I *1128:A0 I *D sky130_fd_sc_hd__mux2_1
*I *1126:A1 I *D sky130_fd_sc_hd__a21oi_1
*I *1125:A I *D sky130_fd_sc_hd__or2_1
*I *1121:A2 I *D sky130_fd_sc_hd__a31o_1
*I *1122:B1 I *D sky130_fd_sc_hd__a2bb2o_1
*I *1120:A1 I *D sky130_fd_sc_hd__a21oi_1
*I *1108:C I *D sky130_fd_sc_hd__and4_1
*I *1115:A2 I *D sky130_fd_sc_hd__a31oi_1
*I *1177:A1 I *D sky130_fd_sc_hd__mux2_1
*I *1245:Q O *D sky130_fd_sc_hd__dfrtp_4
*CAP
1 *1175:A0 0.000448222
2 *1128:A0 0
3 *1126:A1 0.000184133
4 *1125:A 0
5 *1121:A2 0
6 *1122:B1 0
7 *1120:A1 0
8 *1108:C 0
9 *1115:A2 8.81627e-05
10 *1177:A1 4.91504e-05
11 *1245:Q 0
12 *257:90 0.000296304
13 *257:88 0.00054459
14 *257:36 0.000179295
15 *257:34 0.000762632
16 *257:26 0.00120261
17 *257:18 0.000536281
18 *257:14 0.000173689
19 *257:8 0.000960637
20 *257:4 0.00085707
21 *1115:A2 *1328:A 0.00012401
22 *1175:A0 *267:23 0.000440363
23 *1175:A0 *267:45 0.000126439
24 *1175:A0 *267:56 0.000537509
25 *1175:A0 *359:16 4.49922e-05
26 *1177:A1 *1108:A 6.87574e-05
27 *257:8 *359:16 5.01883e-05
28 *257:14 *1121:A1 2.44318e-05
29 *257:14 *293:46 0.000104236
30 *257:18 *1121:A1 0.000109466
31 *257:26 *1121:A1 8.61809e-05
32 *257:26 *258:8 3.04117e-05
33 *257:26 *258:12 0.000384125
34 *257:26 *258:26 5.71472e-05
35 *257:34 *1328:A 0.000132452
36 *257:34 *258:38 9.11048e-06
37 *257:36 *1108:A 6.57914e-05
38 *257:88 *293:42 0.000455316
39 *257:88 *293:46 2.79832e-05
40 *1099:A *257:14 9.90431e-05
41 *1106:A *257:88 5.52238e-05
42 *1109:S *257:34 9.10431e-06
43 *1117:A3 *1115:A2 0.000125731
44 *1120:A2 *257:14 1.52978e-05
45 *1120:A2 *257:26 2.44318e-05
46 *1120:A2 *257:34 3.18676e-05
47 *1121:A3 *257:18 1.04232e-05
48 *1122:A2_N *257:18 5.52302e-05
49 *1122:B2 *257:26 1.00332e-05
50 *1126:A2 *1126:A1 0.000162619
51 *1126:B1 *257:88 1.3701e-05
52 *1126:B1 *257:90 9.02133e-05
53 *1129:A *257:88 0.000153148
54 *1129:A *257:90 3.69047e-06
55 *1149:S *1175:A0 0.000577115
56 *1177:S *1177:A1 5.52302e-05
57 *186:40 *257:26 0
58 *186:44 *257:26 0
59 *186:130 *257:14 1.02821e-05
60 *186:130 *257:18 1.54142e-05
61 *197:18 *1126:A1 3.3495e-05
62 *197:18 *257:88 0.000116294
63 *197:18 *257:90 0.000367439
64 *197:38 *257:14 9.24299e-05
65 *197:38 *257:88 0.000263539
66 *197:53 *257:14 9.90367e-05
67 *197:53 *257:18 1.69961e-05
68 *197:55 *257:18 7.77751e-05
69 *197:55 *257:36 5.52238e-05
70 *203:20 *257:14 4.43256e-05
71 *203:46 *1177:A1 0.000101078
72 *203:46 *257:36 4.13595e-05
73 *205:12 *1115:A2 5.33005e-05
74 *246:85 *1175:A0 5.33005e-05
75 *256:24 *257:88 0.000255972
*RES
1 *1245:Q *257:4 9.3 
2 *257:4 *257:8 10.7857 
3 *257:8 *257:14 8.82143 
4 *257:14 *257:18 2.19643 
5 *257:18 *257:26 16.8036 
6 *257:26 *257:34 19.1607 
7 *257:34 *257:36 1.35714 
8 *257:36 *1177:A1 11.0679 
9 *257:36 *1115:A2 20.4786 
10 *257:34 *1108:C 9.3 
11 *257:26 *1120:A1 9.3 
12 *257:18 *1122:B1 9.3 
13 *257:14 *1121:A2 9.3 
14 *257:8 *257:88 17.3393 
15 *257:88 *257:90 3.41071 
16 *257:90 *1125:A 9.3 
17 *257:90 *1126:A1 12.2107 
18 *257:88 *1128:A0 9.3 
19 *257:4 *1175:A0 33.9786 
*END

*D_NET *258 0.00572816
*CONN
*I *1121:A1 I *D sky130_fd_sc_hd__a31o_1
*I *1120:B1 I *D sky130_fd_sc_hd__a21oi_1
*I *1123:A0 I *D sky130_fd_sc_hd__mux2_1
*I *1108:B I *D sky130_fd_sc_hd__and4_1
*I *1115:A1 I *D sky130_fd_sc_hd__a31oi_1
*I *1177:A0 I *D sky130_fd_sc_hd__mux2_1
*I *1116:A I *D sky130_fd_sc_hd__nand2_1
*I *1246:Q O *D sky130_fd_sc_hd__dfrtp_2
*CAP
1 *1121:A1 0.00018751
2 *1120:B1 0
3 *1123:A0 0
4 *1108:B 0
5 *1115:A1 0
6 *1177:A0 0.000345266
7 *1116:A 0
8 *1246:Q 0.000207964
9 *258:49 0.000467338
10 *258:38 0.000252131
11 *258:28 0.000323252
12 *258:26 0.000388475
13 *258:12 0.000289524
14 *258:8 0.000489716
15 *1177:A0 *259:46 9.60875e-05
16 *258:28 *1108:A 5.45307e-05
17 *258:38 *1328:A 4.98055e-06
18 *258:49 *259:46 0
19 *1115:A3 *258:38 5.01213e-05
20 *1117:B1 *1177:A0 0.000115707
21 *1120:A2 *1121:A1 0
22 *1120:A2 *258:12 0.000439437
23 *1120:A2 *258:26 5.52302e-05
24 *1122:A1_N *258:26 0.000121526
25 *1123:S *258:26 2.72053e-05
26 *1124:A *258:26 0
27 *1179:B1_N *1177:A0 0
28 *131:76 *1121:A1 2.10446e-05
29 *131:76 *258:8 0
30 *186:40 *258:8 0
31 *186:130 *1121:A1 0.000178593
32 *197:55 *258:26 2.95641e-05
33 *197:55 *258:28 0.000623106
34 *201:20 *258:26 2.88424e-05
35 *201:40 *258:26 5.90443e-06
36 *203:46 *1177:A0 1.33343e-05
37 *203:46 *258:38 7.70035e-05
38 *205:12 *1177:A0 4.88637e-05
39 *205:12 *258:38 4.82222e-05
40 *205:12 *258:49 3.5871e-05
41 *243:8 *1177:A0 9.33978e-07
42 *257:14 *1121:A1 2.44318e-05
43 *257:18 *1121:A1 0.000109466
44 *257:26 *1121:A1 8.61809e-05
45 *257:26 *258:8 3.04117e-05
46 *257:26 *258:12 0.000384125
47 *257:26 *258:26 5.71472e-05
48 *257:34 *258:38 9.11048e-06
*RES
1 *1246:Q *258:8 17.5679 
2 *258:8 *258:12 8.73214 
3 *258:12 *258:26 13.8929 
4 *258:26 *258:28 5.875 
5 *258:28 *258:38 11.9107 
6 *258:38 *1116:A 9.3 
7 *258:38 *258:49 2.51786 
8 *258:49 *1177:A0 24.1929 
9 *258:49 *1115:A1 9.3 
10 *258:28 *1108:B 9.3 
11 *258:26 *1123:A0 9.3 
12 *258:12 *1120:B1 9.3 
13 *258:8 *1121:A1 18.675 
*END

*D_NET *259 0.00531358
*CONN
*I *1118:A0 I *D sky130_fd_sc_hd__mux2_1
*I *1115:B1 I *D sky130_fd_sc_hd__a31oi_1
*I *1179:A1 I *D sky130_fd_sc_hd__a21bo_1
*I *1108:A I *D sky130_fd_sc_hd__and4_1
*I *1104:A1 I *D sky130_fd_sc_hd__a21bo_1
*I *1247:Q O *D sky130_fd_sc_hd__dfrtp_1
*CAP
1 *1118:A0 0
2 *1115:B1 0
3 *1179:A1 0.000182876
4 *1108:A 0.000243261
5 *1104:A1 0.00036977
6 *1247:Q 0.000319531
7 *259:46 0.000389066
8 *259:29 0.000641697
9 *259:25 0.000477565
10 *259:8 0.000974619
11 *1179:A1 *1328:A 5.26184e-05
12 *1109:S *1104:A1 0.000168226
13 *1109:S *259:25 0.000263699
14 *1109:S *259:29 0
15 *1112:S *259:25 5.33334e-05
16 *1117:A1 *259:29 0.000104974
17 *1117:A1 *259:46 2.31791e-05
18 *1117:A3 *259:29 3.34672e-05
19 *1117:A3 *259:46 5.31278e-05
20 *1117:B1 *259:29 4.23086e-05
21 *1117:B1 *259:46 7.4826e-05
22 *1118:A1 *259:25 5.52302e-05
23 *1118:A1 *259:29 7.83659e-05
24 *1177:A0 *259:46 9.60875e-05
25 *1177:A1 *1108:A 6.87574e-05
26 *1177:S *1108:A 5.52302e-05
27 *1179:A2 *1179:A1 7.17136e-05
28 *1179:B1_N *1179:A1 0.000205856
29 *197:55 *1108:A 9.77264e-06
30 *198:8 *259:29 0
31 *201:20 *259:25 6.05161e-06
32 *205:12 *259:46 5.52302e-05
33 *243:16 *1104:A1 0
34 *243:16 *259:25 0
35 *243:16 *259:29 2.28159e-05
36 *257:36 *1108:A 6.57914e-05
37 *258:28 *1108:A 5.45307e-05
38 *258:49 *259:46 0
*RES
1 *1247:Q *259:8 17.2107 
2 *259:8 *1104:A1 20.8714 
3 *259:8 *259:25 11.6429 
4 *259:25 *259:29 8.57143 
5 *259:29 *1108:A 18.0321 
6 *259:29 *259:46 8.42857 
7 *259:46 *1179:A1 22.7464 
8 *259:46 *1115:B1 9.3 
9 *259:25 *1118:A0 9.3 
*END

*D_NET *260 0.00100895
*CONN
*I *1103:B_N I *D sky130_fd_sc_hd__or2b_1
*I *1295:A I *D sky130_fd_sc_hd__dlygate4sd3_1
*I *1248:Q O *D sky130_fd_sc_hd__dfrtp_1
*CAP
1 *1103:B_N 0.000221484
2 *1295:A 0
3 *1248:Q 0.000224996
4 *260:12 0.00044648
5 *1103:B_N *1103:A 2.27416e-05
6 *1103:B_N *1109:A0 0
7 *1103:B_N *1112:A0 0
8 *260:12 *265:73 3.08664e-05
9 *1104:B1_N *1103:B_N 0
10 *1105:A *1103:B_N 6.2379e-05
*RES
1 *1248:Q *260:12 17.2286 
2 *260:12 *1295:A 13.8 
3 *260:12 *1103:B_N 17.8179 
*END

*D_NET *261 0.0128653
*CONN
*I *1288:A I *D sky130_fd_sc_hd__clkbuf_16
*I *1289:A I *D sky130_fd_sc_hd__clkbuf_16
*I *1286:A I *D sky130_fd_sc_hd__clkbuf_16
*I *1287:A I *D sky130_fd_sc_hd__clkbuf_16
*I *1282:X O *D sky130_fd_sc_hd__clkbuf_16
*CAP
1 *1288:A 0.00120762
2 *1289:A 3.2467e-05
3 *1286:A 0.000579664
4 *1287:A 0.000146181
5 *1282:X 0
6 *261:42 0.00192663
7 *261:8 0.00131268
8 *261:4 0.00127337
9 *1286:A *1074:C1 3.55907e-05
10 *1286:A *270:52 6.13757e-06
11 *1286:A *274:44 0.000228558
12 *1287:A *270:52 1.39726e-05
13 *1288:A *267:21 8.25843e-06
14 *1288:A *352:12 4.53295e-05
15 *261:8 *1051:A1 2.20608e-05
16 *261:8 *1266:CLK 0
17 *261:42 *1272:CLK 0
18 *261:42 *305:16 0
19 *261:42 *359:91 0
20 *1052:B1 *261:8 0.000150618
21 *1055:A *1287:A 7.97875e-05
22 *1055:A *261:8 5.41797e-05
23 *1074:D1 *1286:A 0.000141729
24 *1075:B2 *1286:A 4.48647e-05
25 *1081:B *1286:A 0.000792432
26 *1081:C_N *1286:A 0.000183713
27 *1101:A2 *1287:A 5.83233e-05
28 *1101:A2 *261:8 0.00149452
29 *1149:S *1288:A 1.0562e-05
30 *1171:A0 *1288:A 0.000141734
31 *1171:A1 *1288:A 0.000183027
32 *1238:D *261:42 0.000223592
33 *131:110 *261:42 0
34 *133:101 *1288:A 1.94945e-05
35 *133:101 *261:42 0.000517007
36 *134:14 *1288:A 3.43988e-06
37 *134:14 *261:42 0.00016555
38 *155:96 *261:8 4.90287e-05
39 *155:104 *261:8 0.000102545
40 *155:125 *261:8 0.000167684
41 *155:125 *261:42 0
42 *157:50 *261:8 0.000758048
43 *161:39 *1286:A 0.000244565
44 *162:18 *261:8 5.71755e-05
45 *193:33 *261:8 7.83659e-05
46 *193:33 *261:42 0.00022266
47 *240:12 *1288:A 6.28356e-05
48 *240:12 *1289:A 1.92789e-05
*RES
1 *1282:X *261:4 9.3 
2 *261:4 *261:8 24.9643 
3 *261:8 *1287:A 16.7286 
4 *261:8 *1286:A 28.7643 
5 *261:4 *261:42 19.25 
6 *261:42 *1289:A 14.3357 
7 *261:42 *1288:A 28.4865 
*END

*D_NET *262 0.0037445
*CONN
*I *1285:A I *D sky130_fd_sc_hd__clkbuf_16
*I *1284:A I *D sky130_fd_sc_hd__clkbuf_16
*I *1283:X O *D sky130_fd_sc_hd__clkbuf_16
*CAP
1 *1285:A 0.000616415
2 *1284:A 0.000648325
3 *1283:X 0
4 *262:4 0.00126474
5 *1284:A *1237:D 8.00806e-05
6 *1284:A *268:10 0
7 *1284:A *268:14 0
8 *1284:A *268:56 0.000222885
9 *1284:A *361:25 2.05938e-05
10 *1285:A *1166:A 5.41794e-05
11 *1285:A *1219:A 0
12 *1285:A *268:56 0
13 *1285:A *361:40 3.69697e-05
14 *1152:A3 *1284:A 0.000292715
15 *1167:B1 *1285:A 3.29279e-05
16 *1189:B *1284:A 0.000162035
17 *1236:D *1284:A 6.24649e-05
18 *1236:RESET_B *1284:A 6.48957e-05
19 *193:50 *1284:A 0
20 *241:22 *1285:A 5.70688e-05
21 *242:10 *1285:A 3.67142e-05
22 *247:41 *1284:A 9.14882e-05
*RES
1 *1283:X *262:4 9.3 
2 *262:4 *1284:A 33.6571 
3 *262:4 *1285:A 28.7107 
*END

*D_NET *263 0.00432356
*CONN
*I *1233:A I *D sky130_fd_sc_hd__inv_2
*I *1222:A I *D sky130_fd_sc_hd__inv_2
*I *1231:A I *D sky130_fd_sc_hd__inv_2
*I *1232:A I *D sky130_fd_sc_hd__inv_2
*I *1284:X O *D sky130_fd_sc_hd__clkbuf_16
*CAP
1 *1233:A 0.000379995
2 *1222:A 0.000506366
3 *1231:A 0.000223417
4 *1232:A 0.00024476
5 *1284:X 0.000174766
6 *263:32 0.000939696
7 *263:19 0.000276752
8 *263:8 0.000419526
9 *1222:A *1267:CLK 3.52933e-05
10 *1231:A *1045:A1 0.000135304
11 *1231:A *1045:A2 0
12 *1231:A *359:91 0
13 *1232:A *1277:CLK 3.08664e-05
14 *1232:A *1351:A 0.000141734
15 *1233:A *1307:A 0
16 *1267:D *1231:A 0
17 *1267:D *1233:A 0
18 *1267:D *263:32 0
19 *1267:RESET_B *1233:A 0.000142023
20 *1276:RESET_B *1231:A 0
21 *134:60 *1233:A 0
22 *138:32 *1231:A 5.66551e-05
23 *138:32 *1232:A 0.00013883
24 *138:32 *1233:A 0.000440605
25 *138:32 *263:32 3.69697e-05
*RES
1 *1284:X *263:8 11.4964 
2 *263:8 *1232:A 14.675 
3 *263:8 *263:19 4.5 
4 *263:19 *1231:A 17.8 
5 *263:19 *263:32 1.03571 
6 *263:32 *1222:A 19.9964 
7 *263:32 *1233:A 24.2464 
*END

*D_NET *264 0.00872417
*CONN
*I *1229:A I *D sky130_fd_sc_hd__inv_2
*I *1235:A I *D sky130_fd_sc_hd__inv_2
*I *1234:A I *D sky130_fd_sc_hd__inv_2
*I *1228:A I *D sky130_fd_sc_hd__inv_2
*I *1230:A I *D sky130_fd_sc_hd__inv_2
*I *1220:A I *D sky130_fd_sc_hd__inv_2
*I *1285:X O *D sky130_fd_sc_hd__clkbuf_16
*CAP
1 *1229:A 0.000873186
2 *1235:A 0.000264935
3 *1234:A 2.23854e-05
4 *1228:A 0.000474048
5 *1230:A 9.41847e-06
6 *1220:A 0
7 *1285:X 0.000335379
8 *264:53 0.000530033
9 *264:38 0.000791179
10 *264:29 0.000272828
11 *264:18 0.000231
12 *264:12 0.00125057
13 *1228:A *1273:CLK 8.00806e-05
14 *264:12 *1265:CLK 8.00806e-05
15 *264:29 *1033:A1 0.000227508
16 *264:38 *1033:A1 0.000449539
17 *264:38 *1219:A 0.000230482
18 *264:53 *1033:A1 0.00031407
19 *264:53 *1219:A 0.00060538
20 *1032:S *1228:A 2.16719e-05
21 *1033:A0 *264:29 0.000139625
22 *1033:S *264:29 1.59373e-05
23 *1034:A *1230:A 3.99614e-06
24 *1034:A *264:29 0.000115701
25 *1034:A *264:38 7.32955e-05
26 *1035:B *1229:A 0
27 *1035:B *264:12 0
28 *1039:B *1228:A 0
29 *1041:B1 *1228:A 7.6644e-05
30 *1167:B1 *1229:A 0
31 *1167:B1 *264:12 0
32 *1176:A *1235:A 0.000227539
33 *1190:A *1229:A 0
34 *1265:D *264:12 0.00012401
35 *1273:D *1228:A 0.00012401
36 *1274:RESET_B *1229:A 0
37 *134:119 *1228:A 0
38 *136:97 *1235:A 0.000319316
39 *136:103 *1228:A 4.61027e-05
40 *136:120 *1228:A 9.29571e-05
41 *138:49 *1235:A 0.000115611
42 *138:63 *1229:A 0
43 *242:10 *264:12 0.000185643
*RES
1 *1285:X *264:12 20.1839 
2 *264:12 *264:18 5.16964 
3 *264:18 *1220:A 9.3 
4 *264:18 *264:29 5.60714 
5 *264:29 *1230:A 9.72857 
6 *264:29 *264:38 4.23214 
7 *264:38 *1228:A 27.9607 
8 *264:38 *264:53 7.10714 
9 *264:53 *1234:A 9.72857 
10 *264:53 *1235:A 25.6929 
11 *264:12 *1229:A 27.2065 
*END

*D_NET *265 0.0144274
*CONN
*I *1254:CLK I *D sky130_fd_sc_hd__dfrtp_1
*I *1256:CLK I *D sky130_fd_sc_hd__dfrtp_1
*I *1268:CLK I *D sky130_fd_sc_hd__dfstp_2
*I *1248:CLK I *D sky130_fd_sc_hd__dfrtp_1
*I *1246:CLK I *D sky130_fd_sc_hd__dfrtp_2
*I *1247:CLK I *D sky130_fd_sc_hd__dfrtp_1
*I *1255:CLK I *D sky130_fd_sc_hd__dfrtp_2
*I *1263:CLK I *D sky130_fd_sc_hd__dfrtp_1
*I *1262:CLK I *D sky130_fd_sc_hd__dfrtp_1
*I *1286:X O *D sky130_fd_sc_hd__clkbuf_16
*CAP
1 *1254:CLK 0
2 *1256:CLK 0.000152915
3 *1268:CLK 0.000318441
4 *1248:CLK 0
5 *1246:CLK 0.00077869
6 *1247:CLK 0
7 *1255:CLK 8.9042e-05
8 *1263:CLK 0.000567433
9 *1262:CLK 3.82418e-05
10 *1286:X 0.000493292
11 *265:79 0.00133158
12 *265:73 0.00113274
13 *265:71 0.00129801
14 *265:54 0.000728293
15 *265:37 0.0010816
16 *265:26 0.00134807
17 *265:22 0.00155389
18 *265:12 0.000859078
19 *265:12 *1281:A 0.000187326
20 *265:26 *1281:A 2.59355e-05
21 *265:79 *1334:A 6.58289e-05
22 odata[6] *265:37 0.00010326
23 *1062:S *265:37 0
24 *1112:S *1246:CLK 0.000123903
25 *1112:S *265:79 0.0003106
26 *1196:A *1268:CLK 5.52302e-05
27 *1200:A *1268:CLK 5.38242e-05
28 *1200:A *265:71 0
29 *1200:A *265:73 7.15846e-05
30 *1208:A *1268:CLK 0
31 *1248:D *265:73 1.08881e-05
32 *1248:RESET_B *265:73 0.000118654
33 *1254:D *265:22 6.05161e-06
34 *1254:RESET_B *265:22 0
35 *1255:D *265:54 0.000129868
36 *1262:D *265:26 5.76121e-05
37 *1262:RESET_B *265:26 0.000220655
38 *243:16 *265:79 0
39 *248:10 *1268:CLK 0.00032246
40 *248:12 *265:71 0
41 *248:20 *265:37 0
42 *248:20 *265:54 0
43 *248:20 *265:71 0
44 *248:116 *1268:CLK 5.7616e-05
45 *249:59 *265:71 6.42338e-05
46 *250:18 *1268:CLK 0
47 *250:36 *265:22 0
48 *250:75 *1268:CLK 0
49 *251:29 *265:22 0.000242906
50 *251:55 *265:12 0.000270288
51 *251:55 *265:22 0.000126439
52 *260:12 *265:73 3.08664e-05
*RES
1 *1286:X *265:12 27.8 
2 *265:12 *265:22 15.4643 
3 *265:22 *265:26 12.7679 
4 *265:26 *1262:CLK 10.0321 
5 *265:26 *265:37 9.48214 
6 *265:37 *1263:CLK 20.6571 
7 *265:37 *265:54 4.67857 
8 *265:54 *1255:CLK 15.175 
9 *265:54 *265:71 11.7321 
10 *265:71 *265:73 10.8036 
11 *265:73 *265:79 17 
12 *265:79 *1247:CLK 13.8 
13 *265:79 *1246:CLK 27.05 
14 *265:73 *1248:CLK 9.3 
15 *265:71 *1268:CLK 25.2821 
16 *265:22 *1256:CLK 11.8893 
17 *265:12 *1254:CLK 9.3 
*END

*D_NET *266 0.0166217
*CONN
*I *1257:CLK I *D sky130_fd_sc_hd__dfrtp_1
*I *1259:CLK I *D sky130_fd_sc_hd__dfrtp_1
*I *1260:CLK I *D sky130_fd_sc_hd__dfrtp_1
*I *1261:CLK I *D sky130_fd_sc_hd__dfrtp_1
*I *1258:CLK I *D sky130_fd_sc_hd__dfrtp_1
*I *1253:CLK I *D sky130_fd_sc_hd__dfrtp_1
*I *1252:CLK I *D sky130_fd_sc_hd__dfrtp_1
*I *1266:CLK I *D sky130_fd_sc_hd__dfrtp_1
*I *1264:CLK I *D sky130_fd_sc_hd__dfrtp_4
*I *1249:CLK I *D sky130_fd_sc_hd__dfrtp_1
*I *1250:CLK I *D sky130_fd_sc_hd__dfrtp_4
*I *1251:CLK I *D sky130_fd_sc_hd__dfrtp_4
*I *1287:X O *D sky130_fd_sc_hd__clkbuf_16
*CAP
1 *1257:CLK 0.000336967
2 *1259:CLK 8.14092e-05
3 *1260:CLK 0
4 *1261:CLK 0.000188696
5 *1258:CLK 3.88203e-05
6 *1253:CLK 0.000275489
7 *1252:CLK 9.09356e-05
8 *1266:CLK 0.000448689
9 *1264:CLK 0.00014325
10 *1249:CLK 2.04877e-05
11 *1250:CLK 3.0568e-05
12 *1251:CLK 0.000298458
13 *1287:X 0.000179275
14 *266:124 0.000459696
15 *266:120 0.000622238
16 *266:114 0.0010717
17 *266:103 0.000994979
18 *266:81 0.000468677
19 *266:61 0.00115955
20 *266:53 0.000930171
21 *266:49 0.000952009
22 *266:36 0.000428323
23 *266:12 0.000651115
24 *266:10 0.000708746
25 *1251:CLK *305:28 0
26 *1253:CLK *1072:A1 0.000700627
27 *1253:CLK *1087:A 2.26327e-05
28 *1253:CLK *1349:A 0
29 *1253:CLK *270:92 2.04644e-05
30 *1257:CLK *1070:A1 0
31 *1257:CLK *1072:S 0.000117144
32 *1257:CLK *297:21 0.000126439
33 *1257:CLK *313:23 8.15939e-05
34 *1261:CLK *1064:A1 5.52302e-05
35 *1261:CLK *1337:A 0
36 *1261:CLK *313:41 0
37 *1266:CLK *293:101 0.000773327
38 *1266:CLK *305:28 0.000947347
39 *266:12 *305:28 0
40 *266:53 *1349:A 0
41 *266:53 *270:75 5.31541e-05
42 *266:53 *271:47 0.000317594
43 *266:53 *271:62 0.000165269
44 *266:53 *271:72 0.000106403
45 *266:61 *271:62 2.51343e-06
46 *266:61 *271:72 1.07719e-05
47 *266:61 *354:10 5.33005e-05
48 *266:81 *270:75 4.46186e-06
49 *266:81 *270:92 6.52663e-05
50 *266:81 *271:72 8.82571e-05
51 *266:103 *269:10 0.000133574
52 *266:120 *1337:A 0.000128161
53 *266:120 *297:21 0.000120332
54 *266:124 *1337:A 0
55 *266:124 *313:41 0
56 *1010:A *266:53 3.92854e-05
57 *1088:S *1253:CLK 0.000262719
58 *1091:A2 *1264:CLK 0.000113295
59 *1091:A2 *266:53 4.98055e-06
60 *1091:A2 *266:61 0.000273812
61 *1091:B1 *1253:CLK 0.000113385
62 *1091:B1 *266:81 3.39401e-05
63 *1102:A *266:36 0.000141734
64 *1154:A3 *1266:CLK 5.34835e-05
65 *1157:B1 *1253:CLK 6.8646e-06
66 *1249:D *266:36 2.89016e-05
67 *1249:D *266:49 6.82252e-05
68 *1250:D *1250:CLK 2.84109e-05
69 *1250:D *266:12 0
70 *1251:D *1251:CLK 5.65955e-05
71 *1252:D *1252:CLK 0.000113005
72 *1258:RESET_B *266:120 0
73 *1260:D *1261:CLK 6.98596e-05
74 *1264:D *1264:CLK 3.17211e-05
75 *1264:D *1266:CLK 3.5707e-05
76 *1266:D *1266:CLK 3.93986e-05
77 *154:14 *1252:CLK 0.000136951
78 *155:96 *1266:CLK 0
79 *156:93 *1266:CLK 0
80 *187:14 *266:10 9.4724e-05
81 *187:14 *266:12 5.59013e-05
82 *250:99 *1252:CLK 5.22927e-05
83 *250:103 *1257:CLK 0
84 *250:103 *266:120 0
85 *251:114 *266:114 9.23851e-05
86 *261:8 *1266:CLK 0
*RES
1 *1287:X *266:10 16.4964 
2 *266:10 *266:12 5.58929 
3 *266:12 *1251:CLK 19.0143 
4 *266:12 *1250:CLK 14.3357 
5 *266:10 *266:36 7.91071 
6 *266:36 *1249:CLK 9.72857 
7 *266:36 *266:49 3.14286 
8 *266:49 *266:53 11.9107 
9 *266:53 *266:61 14.5179 
10 *266:61 *1264:CLK 12.3 
11 *266:61 *1266:CLK 32.6929 
12 *266:53 *266:81 1.94643 
13 *266:81 *1252:CLK 16.4071 
14 *266:81 *1253:CLK 23.3357 
15 *266:49 *266:103 5.875 
16 *266:103 *1258:CLK 10.0321 
17 *266:103 *266:114 9.96429 
18 *266:114 *266:120 9.83929 
19 *266:120 *266:124 9.48214 
20 *266:124 *1261:CLK 17.7107 
21 *266:124 *1260:CLK 13.8 
22 *266:120 *1259:CLK 10.6571 
23 *266:114 *1257:CLK 21.2464 
*END

*D_NET *267 0.0158483
*CONN
*I *1240:CLK I *D sky130_fd_sc_hd__dfrtp_1
*I *1243:CLK I *D sky130_fd_sc_hd__dfrtp_4
*I *1242:CLK I *D sky130_fd_sc_hd__dfrtp_4
*I *1241:CLK I *D sky130_fd_sc_hd__dfrtp_4
*I *1244:CLK I *D sky130_fd_sc_hd__dfrtp_2
*I *1269:CLK I *D sky130_fd_sc_hd__dfrtp_1
*I *1270:CLK I *D sky130_fd_sc_hd__dfrtp_4
*I *1271:CLK I *D sky130_fd_sc_hd__dfrtp_1
*I *1245:CLK I *D sky130_fd_sc_hd__dfrtp_4
*I *1288:X O *D sky130_fd_sc_hd__clkbuf_16
*CAP
1 *1240:CLK 0.000301347
2 *1243:CLK 0
3 *1242:CLK 0.000136018
4 *1241:CLK 0.000976094
5 *1244:CLK 7.81988e-05
6 *1269:CLK 7.58631e-05
7 *1270:CLK 2.62187e-05
8 *1271:CLK 0.000440177
9 *1245:CLK 0.000366921
10 *1288:X 0
11 *267:79 0.0015866
12 *267:73 0.0010977
13 *267:69 0.00125129
14 *267:56 0.00072721
15 *267:45 0.000466323
16 *267:23 0.000781344
17 *267:21 0.00104959
18 *267:4 0.00103338
19 *1240:CLK *308:12 0
20 *1245:CLK *352:12 9.60939e-05
21 *267:21 *352:12 0.000892907
22 *267:23 *352:12 0.000170438
23 *267:73 *1149:A0 1.24368e-05
24 *1100:B *1271:CLK 6.05161e-06
25 *1100:C *1271:CLK 0.000161415
26 *1127:A1 *1245:CLK 8.07879e-05
27 *1129:A *1245:CLK 0
28 *1133:A0 *1244:CLK 3.08664e-05
29 *1133:A1 *267:56 0
30 *1133:S *1244:CLK 0
31 *1141:B *1241:CLK 0.000170438
32 *1142:A1 *1241:CLK 0
33 *1143:A *1241:CLK 0
34 *1143:A *1242:CLK 0
35 *1149:S *1240:CLK 2.8266e-06
36 *1149:S *267:23 6.16276e-05
37 *1149:S *267:56 9.86048e-05
38 *1149:S *267:69 0.000171703
39 *1150:A *1240:CLK 0
40 *1150:A *267:73 7.86956e-05
41 *1164:A2 *1270:CLK 5.33005e-05
42 *1164:A2 *1271:CLK 0.000332771
43 *1164:A2 *267:23 3.17148e-05
44 *1164:B1 *1270:CLK 2.28598e-05
45 *1175:A0 *267:23 0.000440363
46 *1175:A0 *267:45 0.000126439
47 *1175:A0 *267:56 0.000537509
48 *1191:B *1241:CLK 0
49 *1192:B *267:79 9.90431e-05
50 *1240:D *1240:CLK 1.26316e-05
51 *1241:RESET_B *1241:CLK 0.000263442
52 *1242:D *1242:CLK 4.79842e-05
53 *1242:RESET_B *267:79 5.62995e-05
54 *1243:D *267:73 7.14951e-05
55 *1243:D *267:79 3.08664e-05
56 *1244:D *267:56 9.25014e-06
57 *1244:D *267:69 0.000101545
58 *1245:D *1245:CLK 5.8753e-05
59 *1288:A *267:21 8.25843e-06
60 *186:44 *1245:CLK 0
61 *192:16 *1271:CLK 7.34455e-06
62 *192:48 *267:23 0
63 *197:38 *1245:CLK 0
64 *201:81 *1241:CLK 0
65 *203:18 *267:23 0
66 *241:22 *1269:CLK 9.71197e-05
67 *247:22 *1270:CLK 9.60939e-05
68 *247:107 *267:56 0
69 *247:107 *267:69 0
70 *253:10 *1241:CLK 0.000267731
71 *256:6 *1244:CLK 8.25843e-06
72 *256:10 *267:56 0.000119046
73 *256:16 *267:56 0.000519019
*RES
1 *1288:X *267:4 9.3 
2 *267:4 *1245:CLK 24.8357 
3 *267:4 *267:21 13.6607 
4 *267:21 *267:23 8.32143 
5 *267:23 *1271:CLK 22.2643 
6 *267:23 *1270:CLK 14.7464 
7 *267:21 *267:45 1.64286 
8 *267:45 *1269:CLK 15.1571 
9 *267:45 *267:56 10.4464 
10 *267:56 *1244:CLK 15.175 
11 *267:56 *267:69 7.10714 
12 *267:69 *267:73 15.7143 
13 *267:73 *267:79 12.8571 
14 *267:79 *1241:CLK 32.0857 
15 *267:79 *1242:CLK 16.3536 
16 *267:73 *1243:CLK 9.3 
17 *267:69 *1240:CLK 17.9429 
*END

*D_NET *268 0.0105734
*CONN
*I *1219:A I *D sky130_fd_sc_hd__buf_1
*I *1239:CLK I *D sky130_fd_sc_hd__dfrtp_1
*I *1237:CLK I *D sky130_fd_sc_hd__dfrtp_1
*I *1236:CLK I *D sky130_fd_sc_hd__dfrtp_1
*I *1272:CLK I *D sky130_fd_sc_hd__dfrtp_1
*I *1238:CLK I *D sky130_fd_sc_hd__dfrtp_1
*I *1289:X O *D sky130_fd_sc_hd__clkbuf_16
*CAP
1 *1219:A 0.000701008
2 *1239:CLK 0.000113675
3 *1237:CLK 0
4 *1236:CLK 0.000267422
5 *1272:CLK 0.000416865
6 *1238:CLK 0.000244348
7 *1289:X 6.1767e-05
8 *268:56 0.00115522
9 *268:16 0.0009535
10 *268:14 0.000846355
11 *268:10 0.000391457
12 *268:6 0.00050712
13 *1219:A *1033:A1 0
14 *1219:A *277:24 0
15 *1239:CLK *1239:D 6.05161e-06
16 *1272:CLK *1167:A1 0.000164554
17 *1272:CLK *1272:D 6.86693e-05
18 *1272:CLK *359:91 0.00022117
19 *268:6 *1155:A1 1.24368e-05
20 *268:10 *361:25 0.00012401
21 *268:10 *361:40 2.24646e-05
22 *268:16 *1180:B 0.000173836
23 *268:16 *305:16 0.000139208
24 *268:16 *310:10 7.9741e-05
25 *268:56 *1155:A1 4.08637e-05
26 *268:56 *1155:B1 4.27338e-05
27 *1152:A3 *268:6 8.03994e-06
28 *1152:A3 *268:56 7.62701e-05
29 *1155:A2 *268:6 1.18716e-05
30 *1167:B1 *1219:A 0
31 *1189:B *1219:A 0.000153054
32 *1189:B *268:56 0.000600066
33 *1236:RESET_B *268:14 0.000128161
34 *1238:D *1238:CLK 7.77652e-05
35 *1238:RESET_B *268:16 8.79458e-05
36 *1272:RESET_B *1272:CLK 5.83233e-05
37 *1275:D *1219:A 0
38 *1284:A *268:10 0
39 *1284:A *268:14 0
40 *1284:A *268:56 0.000222885
41 *1285:A *1219:A 0
42 *1285:A *268:56 0
43 *1308:A *268:56 5.52302e-05
44 *131:110 *1238:CLK 0.000266611
45 *131:110 *1272:CLK 7.73758e-05
46 *131:127 *1272:CLK 0.000117078
47 *132:20 *1272:CLK 6.09773e-05
48 *193:50 *268:10 0.000137931
49 *193:50 *268:14 0.000576894
50 *240:12 *268:6 0.000156548
51 *240:12 *268:56 0.000110029
52 *261:42 *1272:CLK 0
53 *264:38 *1219:A 0.000230482
54 *264:53 *1219:A 0.00060538
*RES
1 *1289:X *268:6 11.0679 
2 *268:6 *268:10 7.05357 
3 *268:10 *268:14 11.9107 
4 *268:14 *268:16 6.28571 
5 *268:16 *1238:CLK 15.175 
6 *268:16 *1272:CLK 27.925 
7 *268:14 *1236:CLK 13.5321 
8 *268:10 *1237:CLK 13.8 
9 *268:6 *268:56 14.3929 
10 *268:56 *1239:CLK 15.5857 
11 *268:56 *1219:A 28.5321 
*END

*D_NET *269 0.00243042
*CONN
*I *1043:C I *D sky130_fd_sc_hd__and3_1
*I *1009:C I *D sky130_fd_sc_hd__or3_1
*I *1047:A I *D sky130_fd_sc_hd__clkbuf_4
*I *1249:Q O *D sky130_fd_sc_hd__dfrtp_1
*CAP
1 *1043:C 0.000131766
2 *1009:C 0
3 *1047:A 0.000105807
4 *1249:Q 0.000347317
5 *269:16 0.000149118
6 *269:10 0.000522394
7 *1043:C *270:75 7.38748e-05
8 *1047:A *1009:A 5.33005e-05
9 *1047:A *313:19 0.000107022
10 *269:10 *270:75 2.61337e-05
11 *269:10 *271:47 0.000123737
12 *269:16 *313:19 5.52238e-05
13 *1044:A *1043:C 5.39166e-06
14 *1075:A2 *1047:A 3.18676e-05
15 *135:6 *1047:A 2.44318e-05
16 *248:73 *1043:C 0.000151333
17 *248:73 *269:10 0.000388132
18 *266:103 *269:10 0.000133574
*RES
1 *1249:Q *269:10 22.6036 
2 *269:10 *269:16 5.46429 
3 *269:16 *1047:A 11.8893 
4 *269:16 *1009:C 9.3 
5 *269:10 *1043:C 16.5768 
*END

*D_NET *270 0.0124842
*CONN
*I *1009:B I *D sky130_fd_sc_hd__or3_1
*I *1087:C I *D sky130_fd_sc_hd__or4b_1
*I *1162:B I *D sky130_fd_sc_hd__nand3_1
*I *1043:B I *D sky130_fd_sc_hd__and3_1
*I *1094:B1_N I *D sky130_fd_sc_hd__a21bo_1
*I *1054:A_N I *D sky130_fd_sc_hd__nand2b_2
*I *1074:C1 I *D sky130_fd_sc_hd__o2111a_1
*I *1095:B I *D sky130_fd_sc_hd__or2_1
*I *1048:B I *D sky130_fd_sc_hd__nand2_2
*I *1250:Q O *D sky130_fd_sc_hd__dfrtp_4
*CAP
1 *1009:B 0
2 *1087:C 0
3 *1162:B 0.000483125
4 *1043:B 0
5 *1094:B1_N 0
6 *1054:A_N 3.74609e-05
7 *1074:C1 0.000206451
8 *1095:B 0
9 *1048:B 0.000192958
10 *1250:Q 0.000482906
11 *270:92 0.00081344
12 *270:75 0.000463476
13 *270:52 0.00045615
14 *270:32 0.000432408
15 *270:28 0.000617526
16 *270:24 0.000970003
17 *270:14 0.000967447
18 *270:12 0.000513029
19 *1048:B *1074:B1 5.2713e-05
20 *1048:B *271:18 0.00010096
21 *1048:B *271:20 0.000182425
22 *1162:B *1057:A1 1.24368e-05
23 *1162:B *271:93 0.000185705
24 *270:12 *271:10 0
25 *270:12 *271:47 0
26 *270:12 *313:19 0.000268396
27 *270:14 *313:19 5.52302e-05
28 *270:24 *305:28 9.96331e-05
29 *270:24 *313:19 0.000869935
30 *270:32 *305:28 0
31 *270:75 *271:47 5.41794e-05
32 *270:75 *271:62 0.000173804
33 *270:92 *1072:A1 0.000123295
34 *270:92 *1087:A 9.71197e-05
35 *1043:C *270:75 7.38748e-05
36 *1044:A *270:75 1.02504e-05
37 *1044:A *270:92 0.00014627
38 *1055:A *270:52 9.90431e-05
39 *1058:B1 *1162:B 1.59373e-05
40 *1074:D1 *1074:C1 7.54305e-05
41 *1090:A1 *1162:B 9.80173e-05
42 *1090:A1 *270:92 0.000103504
43 *1091:B1 *270:92 0.000135028
44 *1094:A2 *270:28 1.39841e-05
45 *1097:A *270:32 0.000107431
46 *1101:B1 *270:32 1.88048e-05
47 *1102:A *270:24 7.17235e-05
48 *1102:A *270:28 9.92409e-05
49 *1205:A *270:75 0
50 *1249:RESET_B *270:12 0.000175519
51 *1253:CLK *270:92 2.04644e-05
52 *1286:A *1074:C1 3.55907e-05
53 *1286:A *270:52 6.13757e-06
54 *1287:A *270:52 1.39726e-05
55 *154:14 *270:92 7.58583e-05
56 *156:14 *1162:B 9.58126e-05
57 *156:16 *1162:B 0.000736169
58 *156:18 *1162:B 0.000175892
59 *156:24 *1162:B 5.42134e-05
60 *156:108 *270:32 5.83233e-05
61 *156:108 *270:52 7.6644e-05
62 *161:14 *270:32 1.19402e-05
63 *161:14 *270:52 2.1527e-05
64 *187:14 *270:24 9.73841e-05
65 *248:73 *270:12 0
66 *248:73 *270:75 2.00751e-05
67 *249:111 *270:12 0.000153047
68 *249:122 *270:12 0.00052583
69 *266:53 *270:75 5.31541e-05
70 *266:81 *270:75 4.46186e-06
71 *266:81 *270:92 6.52663e-05
72 *269:10 *270:75 2.61337e-05
*RES
1 *1250:Q *270:12 29.5143 
2 *270:12 *270:14 0.535714 
3 *270:14 *270:24 22.1607 
4 *270:24 *270:28 6.67857 
5 *270:28 *270:32 9.78571 
6 *270:32 *1048:B 13.1393 
7 *270:32 *1095:B 9.3 
8 *270:28 *270:52 7.71429 
9 *270:52 *1074:C1 11.8893 
10 *270:52 *1054:A_N 9.93393 
11 *270:24 *1094:B1_N 9.3 
12 *270:14 *270:75 8.57143 
13 *270:75 *1043:B 13.8 
14 *270:75 *270:92 12.4286 
15 *270:92 *1162:B 21.4964 
16 *270:92 *1087:C 9.3 
17 *270:12 *1009:B 9.3 
*END

*D_NET *271 0.0119674
*CONN
*I *1043:A I *D sky130_fd_sc_hd__and3_1
*I *1087:A I *D sky130_fd_sc_hd__or4b_1
*I *1162:A I *D sky130_fd_sc_hd__nand3_1
*I *1057:A1 I *D sky130_fd_sc_hd__a31oi_1
*I *1058:A2 I *D sky130_fd_sc_hd__a41o_1
*I *1009:A I *D sky130_fd_sc_hd__or3_1
*I *1095:A I *D sky130_fd_sc_hd__or2_1
*I *1048:A I *D sky130_fd_sc_hd__nand2_2
*I *1074:B1 I *D sky130_fd_sc_hd__o2111a_1
*I *1251:Q O *D sky130_fd_sc_hd__dfrtp_4
*CAP
1 *1043:A 0
2 *1087:A 7.68368e-05
3 *1162:A 6.84639e-05
4 *1057:A1 0.000134705
5 *1058:A2 0.000155868
6 *1009:A 1.69531e-05
7 *1095:A 0
8 *1048:A 0
9 *1074:B1 0.0004579
10 *1251:Q 0.000511181
11 *271:93 0.000484014
12 *271:76 0.00123775
13 *271:72 0.00107022
14 *271:62 0.000281823
15 *271:47 0.000483115
16 *271:20 0.000531982
17 *271:18 0.00100249
18 *271:10 0.00181628
19 *1009:A *313:19 5.33005e-05
20 *1058:A2 *1058:A1 1.21258e-05
21 *1074:B1 *274:8 5.57727e-05
22 *1074:B1 *274:19 9.37018e-05
23 *1074:B1 *274:32 5.26184e-05
24 *271:10 *1349:A 0
25 *271:47 *1349:A 0
26 *271:76 *293:101 1.39726e-05
27 *271:93 *293:101 3.48235e-05
28 *1047:A *1009:A 5.33005e-05
29 *1048:B *1074:B1 5.2713e-05
30 *1048:B *271:18 0.00010096
31 *1048:B *271:20 0.000182425
32 *1057:A2 *1057:A1 7.20217e-06
33 *1057:A2 *1162:A 9.54798e-06
34 *1057:B1 *1057:A1 6.62757e-06
35 *1057:B1 *1162:A 1.03196e-05
36 *1058:B1 *1057:A1 2.7348e-05
37 *1058:B1 *1058:A2 4.87953e-05
38 *1058:B1 *271:76 2.14658e-05
39 *1058:B1 *271:93 7.6644e-05
40 *1090:A1 *1087:A 9.71197e-05
41 *1091:A1 *271:76 7.77116e-06
42 *1091:A2 *271:72 0.000166977
43 *1091:B1 *1087:A 7.83659e-05
44 *1091:B1 *271:72 7.98104e-05
45 *1162:B *1057:A1 1.24368e-05
46 *1162:B *271:93 0.000185705
47 *1218:B *271:76 3.20982e-05
48 *1250:D *271:18 0.000357433
49 *1250:RESET_B *271:10 6.58195e-05
50 *1251:RESET_B *271:10 0
51 *1253:CLK *1087:A 2.26327e-05
52 *136:10 *271:72 8.44271e-06
53 *136:29 *1087:A 5.74562e-05
54 *136:29 *271:72 1.36251e-05
55 *155:96 *1058:A2 8.25843e-06
56 *155:96 *271:93 2.39876e-05
57 *156:51 *1162:A 4.45684e-05
58 *156:93 *271:93 9.91086e-05
59 *157:8 *1074:B1 2.84026e-05
60 *157:27 *1074:B1 0
61 *236:14 *1162:A 1.94879e-05
62 *248:73 *271:47 0
63 *249:111 *271:10 0
64 *250:91 *271:76 2.89114e-05
65 *250:99 *271:76 0.000146047
66 *266:53 *271:47 0.000317594
67 *266:53 *271:62 0.000165269
68 *266:53 *271:72 0.000106403
69 *266:61 *271:62 2.51343e-06
70 *266:61 *271:72 1.07719e-05
71 *266:81 *271:72 8.82571e-05
72 *269:10 *271:47 0.000123737
73 *270:12 *271:10 0
74 *270:12 *271:47 0
75 *270:75 *271:47 5.41794e-05
76 *270:75 *271:62 0.000173804
77 *270:92 *1087:A 9.71197e-05
*RES
1 *1251:Q *271:10 23.1036 
2 *271:10 *271:18 17.3929 
3 *271:18 *271:20 1.76786 
4 *271:20 *1074:B1 28.1214 
5 *271:20 *1048:A 9.3 
6 *271:18 *1095:A 9.3 
7 *271:10 *271:47 8.92857 
8 *271:47 *1009:A 14.3357 
9 *271:47 *271:62 7.28571 
10 *271:62 *271:72 9.46429 
11 *271:72 *271:76 14.0714 
12 *271:76 *1058:A2 11.0679 
13 *271:76 *271:93 14.375 
14 *271:93 *1057:A1 11.4964 
15 *271:93 *1162:A 19.5679 
16 *271:72 *1087:A 16.3893 
17 *271:62 *1043:A 9.3 
*END

*D_NET *272 0.00169438
*CONN
*I *1081:A I *D sky130_fd_sc_hd__or3b_1
*I *1077:A I *D sky130_fd_sc_hd__inv_2
*I *1254:Q O *D sky130_fd_sc_hd__dfrtp_1
*CAP
1 *1081:A 0.000106023
2 *1077:A 3.29792e-05
3 *1254:Q 0.000362263
4 *272:14 0.000501265
5 *1077:A *1080:A1 7.64069e-05
6 *272:14 *1080:A1 2.36643e-05
7 *272:14 *274:8 0
8 *1078:A2 *1081:A 1.41642e-05
9 *1078:A2 *272:14 0
10 *1080:A2 *272:14 1.34548e-05
11 *1080:A3 *272:14 2.79092e-05
12 *1080:B1 *272:14 5.90995e-05
13 *155:10 *272:14 7.22594e-05
14 *155:18 *272:14 0.000150625
15 *161:39 *272:14 3.99614e-06
16 *176:8 *1077:A 9.83388e-05
17 *176:8 *272:14 9.66977e-05
18 *176:21 *1081:A 5.52302e-05
19 *179:14 *1081:A 0
*RES
1 *1254:Q *272:14 25.6929 
2 *272:14 *1077:A 10.675 
3 *272:14 *1081:A 20.2464 
*END

*D_NET *273 0.0073588
*CONN
*I *1074:A2 I *D sky130_fd_sc_hd__o2111a_1
*I *1163:B I *D sky130_fd_sc_hd__or4_1
*I *1110:A2 I *D sky130_fd_sc_hd__o311a_1
*I *1082:B1 I *D sky130_fd_sc_hd__a31o_1
*I *1080:A1 I *D sky130_fd_sc_hd__o31a_1
*I *1255:Q O *D sky130_fd_sc_hd__dfrtp_2
*CAP
1 *1074:A2 0.000423917
2 *1163:B 0.000160307
3 *1110:A2 0
4 *1082:B1 0.000109293
5 *1080:A1 9.0677e-05
6 *1255:Q 0.000584303
7 *273:42 0.000505888
8 *273:38 0.00102435
9 *273:23 0.000566295
10 *273:6 0.000877132
11 *1074:A2 *274:44 0
12 *1074:A2 *313:6 0.00052833
13 *1074:A2 *313:19 4.18895e-05
14 *273:38 *313:6 5.33005e-05
15 *273:42 *274:44 0
16 *1075:B2 *1074:A2 7.83587e-05
17 *1077:A *1080:A1 7.64069e-05
18 *1080:A2 *1080:A1 0.000230155
19 *1080:A2 *273:6 8.57166e-06
20 *1080:A3 *1080:A1 5.38444e-06
21 *1080:B1 *1080:A1 8.29398e-06
22 *1082:A2 *1082:B1 2.89644e-05
23 *1082:A2 *273:38 0
24 *1082:A3 *1082:B1 0.000153429
25 *1082:A3 *273:38 6.79191e-05
26 *1083:A *273:6 0.000135714
27 *1086:A1 *273:23 6.20091e-06
28 *1086:B1 *1080:A1 0
29 *1086:C1 *1080:A1 1.97695e-05
30 *1086:C1 *273:6 0.000307343
31 *1086:C1 *273:23 9.9784e-05
32 *1110:C1 *1163:B 8.46259e-06
33 *1111:A2 *1163:B 9.90431e-05
34 *1163:C *1163:B 0.000229783
35 *155:10 *273:42 0
36 *174:8 *273:38 6.09319e-05
37 *176:8 *1080:A1 1.59373e-05
38 *176:21 *273:23 0
39 *176:21 *273:42 7.53309e-05
40 *176:38 *1163:B 1.17968e-05
41 *176:38 *273:42 0.000551257
42 *179:14 *273:6 1.39726e-05
43 *179:14 *273:23 7.6644e-05
44 *272:14 *1080:A1 2.36643e-05
*RES
1 *1255:Q *273:6 16.8179 
2 *273:6 *1080:A1 12.9429 
3 *273:6 *273:23 12.7679 
4 *273:23 *1082:B1 11.6214 
5 *273:23 *273:38 3.42857 
6 *273:38 *273:42 12.5179 
7 *273:42 *1110:A2 13.8 
8 *273:42 *1163:B 17.675 
9 *273:38 *1074:A2 24.8 
*END

*D_NET *274 0.004823
*CONN
*I *1074:A1 I *D sky130_fd_sc_hd__o2111a_1
*I *1163:A I *D sky130_fd_sc_hd__or4_1
*I *1110:A1 I *D sky130_fd_sc_hd__o311a_1
*I *1079:B1 I *D sky130_fd_sc_hd__a31o_1
*I *1078:A1 I *D sky130_fd_sc_hd__a21oi_1
*I *1256:Q O *D sky130_fd_sc_hd__dfrtp_1
*CAP
1 *1074:A1 0
2 *1163:A 0
3 *1110:A1 3.81309e-05
4 *1079:B1 5.5939e-05
5 *1078:A1 0.000347035
6 *1256:Q 0.000325895
7 *274:44 0.000694131
8 *274:32 0.000785754
9 *274:19 0.000324507
10 *274:8 0.000811743
11 *274:44 *1075:A1 0
12 *1074:A2 *274:44 0
13 *1074:B1 *274:8 5.57727e-05
14 *1074:B1 *274:19 9.37018e-05
15 *1074:B1 *274:32 5.26184e-05
16 *1075:B2 *274:44 0
17 *1076:B *1078:A1 1.74352e-05
18 *1076:B *274:19 0
19 *1076:B *274:32 0
20 *1096:B *274:8 0
21 *1097:B *274:8 0
22 *1163:C *1110:A1 0.000228136
23 *1221:B *274:44 0
24 *1286:A *274:44 0.000228558
25 *155:10 *274:44 0.00018473
26 *155:18 *1078:A1 9.80173e-05
27 *155:18 *274:19 0
28 *155:55 *274:44 0
29 *157:27 *274:8 0
30 *157:27 *274:32 0
31 *161:16 *1079:B1 0.00014285
32 *161:39 *274:32 0
33 *174:30 *274:44 0.000171369
34 *174:32 *274:32 0
35 *174:32 *274:44 4.46186e-06
36 *250:75 *1110:A1 0.00016222
37 *251:61 *274:44 0
38 *272:14 *274:8 0
39 *273:42 *274:44 0
*RES
1 *1256:Q *274:8 19.6929 
2 *274:8 *1078:A1 18.0321 
3 *274:8 *274:19 3.16071 
4 *274:19 *1079:B1 15.1571 
5 *274:19 *274:32 7.05357 
6 *274:32 *274:44 21.6786 
7 *274:44 *1110:A1 11.4786 
8 *274:44 *1163:A 9.3 
9 *274:32 *1074:A1 9.3 
*END

*D_NET *275 0.00213801
*CONN
*I *1309:A I *D sky130_fd_sc_hd__dlygate4sd3_1
*I *1036:A1 I *D sky130_fd_sc_hd__mux2_1
*I *1273:Q O *D sky130_fd_sc_hd__dfrtp_1
*CAP
1 *1309:A 8.96689e-05
2 *1036:A1 0.000721408
3 *1273:Q 0.000109688
4 *275:6 0.000920765
5 *1036:A1 *1036:A0 5.19842e-06
6 *1036:A1 *1273:CLK 2.15245e-05
7 *1013:S *1309:A 0
8 *1036:S *1036:A1 0.00018051
9 *1273:D *1036:A1 2.59355e-05
10 *1273:RESET_B *1036:A1 1.25672e-06
11 *1273:RESET_B *1309:A 3.92757e-05
12 *1273:RESET_B *275:6 2.27812e-05
13 *138:49 *1309:A 0
*RES
1 *1273:Q *275:6 10.6571 
2 *275:6 *1036:A1 18.3714 
3 *275:6 *1309:A 19.9429 
*END

*D_NET *276 0.00125671
*CONN
*I *1294:A I *D sky130_fd_sc_hd__dlygate4sd3_1
*I *1032:A1 I *D sky130_fd_sc_hd__mux2_1
*I *1274:Q O *D sky130_fd_sc_hd__dfrtp_1
*CAP
1 *1294:A 0.000341393
2 *1032:A1 0
3 *1274:Q 0.000115167
4 *276:8 0.000456559
5 *1294:A *1011:A0 9.83388e-05
6 *1294:A *1032:A0 0
7 *1294:A *1037:A1 0
8 *1294:A *1041:B2 0
9 *276:8 *1032:A0 3.21345e-05
10 *1032:S *1294:A 7.86973e-05
11 *1032:S *276:8 2.61505e-05
12 *1037:S *1294:A 7.48356e-05
13 *138:63 *1294:A 3.34366e-05
*RES
1 *1274:Q *276:8 11.4964 
2 *276:8 *1032:A1 9.3 
3 *276:8 *1294:A 25.2821 
*END

*D_NET *277 0.0101688
*CONN
*I *1033:A1 I *D sky130_fd_sc_hd__mux2_1
*I *1028:A1 I *D sky130_fd_sc_hd__mux2_1
*I *1275:Q O *D sky130_fd_sc_hd__dfrtp_1
*CAP
1 *1033:A1 0.000774923
2 *1028:A1 0.00022145
3 *1275:Q 0
4 *277:24 0.00217665
5 *277:6 0.00273012
6 *277:24 *1025:A1 0
7 *277:24 *1338:A 0
8 *277:24 *1343:A 0
9 *277:24 *303:31 0.000103253
10 *1017:A0 *277:24 0
11 *1019:B *277:24 0
12 *1025:A0 *277:24 6.95299e-05
13 *1026:A *277:24 0.000347347
14 *1028:S *1028:A1 1.24368e-05
15 *1031:A *1033:A1 2.61637e-05
16 *1031:A *277:24 0.000704816
17 *1033:S *1033:A1 0.000177168
18 *1189:A *277:24 0
19 *1219:A *1033:A1 0
20 *1219:A *277:24 0
21 *1239:RESET_B *277:24 9.78579e-05
22 *1276:RESET_B *277:24 0
23 *1277:RESET_B *277:24 0.000122612
24 *132:42 *277:24 0.000647432
25 *132:59 *277:24 0.000431327
26 *132:65 *277:24 0.000428629
27 *134:119 *1033:A1 6.00916e-05
28 *242:10 *277:24 4.5862e-05
29 *264:29 *1033:A1 0.000227508
30 *264:38 *1033:A1 0.000449539
31 *264:53 *1033:A1 0.00031407
*RES
1 *1275:Q *277:6 13.8 
2 *277:6 *277:24 48.4107 
3 *277:24 *1028:A1 16.8 
4 *277:6 *1033:A1 29.4607 
*END

*D_NET *278 0.0012515
*CONN
*I *1296:A I *D sky130_fd_sc_hd__dlygate4sd3_1
*I *1024:A1 I *D sky130_fd_sc_hd__mux2_1
*I *1276:Q O *D sky130_fd_sc_hd__dfrtp_1
*CAP
1 *1296:A 9.24689e-05
2 *1024:A1 0.000333379
3 *1276:Q 8.56257e-05
4 *278:8 0.000511473
5 *1296:A *1029:A1 0
6 *1025:A0 *1024:A1 0
7 *1025:A0 *1296:A 0
8 *1030:A *1024:A1 0
9 *1276:RESET_B *1024:A1 0
10 *1276:RESET_B *1296:A 0
11 *136:42 *1024:A1 0
12 *138:20 *1024:A1 0.000228558
*RES
1 *1276:Q *278:8 14.7464 
2 *278:8 *1024:A1 19.7464 
3 *278:8 *1296:A 15.4429 
*END

*D_NET *279 0.00319689
*CONN
*I *1020:A1 I *D sky130_fd_sc_hd__mux2_1
*I *1303:A I *D sky130_fd_sc_hd__dlygate4sd3_1
*I *1277:Q O *D sky130_fd_sc_hd__dfrtp_1
*CAP
1 *1020:A1 0.000536346
2 *1303:A 0.000135477
3 *1277:Q 0.000249982
4 *279:10 0.000921804
5 *1020:A1 *1338:A 9.9784e-05
6 *1020:A1 *1343:A 0.000215049
7 *1020:A1 *303:31 2.40619e-05
8 *279:10 *1343:A 0.000154762
9 *1020:S *1020:A1 0.000369867
10 *136:74 *1020:A1 0.000313479
11 *136:74 *279:10 0.000151333
12 *136:89 *1020:A1 2.49484e-05
*RES
1 *1277:Q *279:10 17.925 
2 *279:10 *1303:A 15.5679 
3 *279:10 *1020:A1 26.6036 
*END

*D_NET *280 0.00119794
*CONN
*I *1016:A1 I *D sky130_fd_sc_hd__mux2_1
*I *1297:A I *D sky130_fd_sc_hd__dlygate4sd3_1
*I *1278:Q O *D sky130_fd_sc_hd__dfrtp_1
*CAP
1 *1016:A1 0.000144482
2 *1297:A 0
3 *1278:Q 0.000124692
4 *280:10 0.000269174
5 *1016:A1 *1338:A 0.00019197
6 *280:10 *1338:A 7.83366e-05
7 *1172:A *280:10 9.90431e-05
8 *1278:RESET_B *280:10 7.83659e-05
9 *136:89 *1016:A1 0.000172829
10 *136:89 *280:10 3.90513e-05
*RES
1 *1278:Q *280:10 16.6929 
2 *280:10 *1297:A 13.8 
3 *280:10 *1016:A1 18.4786 
*END

*D_NET *281 0.00293223
*CONN
*I *1011:A1 I *D sky130_fd_sc_hd__mux2_1
*I *1304:A I *D sky130_fd_sc_hd__dlygate4sd3_1
*I *1279:Q O *D sky130_fd_sc_hd__dfrtp_1
*CAP
1 *1011:A1 0.000444901
2 *1304:A 9.45967e-05
3 *1279:Q 9.09439e-05
4 *281:10 0.000630441
5 *1011:A1 *1326:A 0.000229354
6 *1011:A1 *1338:A 0
7 *1017:S *281:10 1.92789e-05
8 *1039:A *1011:A1 0.000115474
9 *1176:A *1304:A 0.000227532
10 *1181:A *1011:A1 0.000575624
11 *1181:A *281:10 0.00015234
12 *1280:RESET_B *1011:A1 0
13 *132:93 *1011:A1 0.000202842
14 *132:93 *281:10 0.000148903
15 *136:97 *1011:A1 0
*RES
1 *1279:Q *281:10 16.2821 
2 *281:10 *1304:A 15.9786 
3 *281:10 *1011:A1 24.9071 
*END

*D_NET *282 0.000377022
*CONN
*I *1006:A I *D sky130_fd_sc_hd__buf_2
*I *1314:X O *D sky130_fd_sc_hd__clkbuf_1
*CAP
1 *1006:A 0.000128664
2 *1314:X 0.000128664
3 *1006:A *300:16 5.71472e-05
4 *1006:A *305:28 6.25468e-05
5 *1097:A *1006:A 0
*RES
1 *1314:X *1006:A 30.0821 
*END

*D_NET *283 0.00904713
*CONN
*I *1011:A0 I *D sky130_fd_sc_hd__mux2_1
*I *1315:X O *D sky130_fd_sc_hd__clkbuf_1
*CAP
1 *1011:A0 0.000809149
2 *1315:X 0.00112325
3 *283:8 0.0019324
4 *1011:A0 *1041:B2 0.00101657
5 *1011:A0 *1326:A 0.000148988
6 *1011:A0 *326:12 0.00012389
7 *283:8 *1350:A 0.0017597
8 *283:8 *326:12 0.000248098
9 pass_thru_user_delay *283:8 5.71472e-05
10 pass_thru_user_reset *283:8 0.000320024
11 *1011:S *1011:A0 9.17149e-05
12 *1294:A *1011:A0 9.83388e-05
13 *1318:A *283:8 2.89114e-05
14 *1319:A *1011:A0 0.000142856
15 *136:103 *1011:A0 0.00114609
*RES
1 *1315:X *283:8 35.3179 
2 *283:8 *1011:A0 33.675 
*END

*D_NET *284 0.000205675
*CONN
*I *1004:A I *D sky130_fd_sc_hd__buf_2
*I *1316:X O *D sky130_fd_sc_hd__clkbuf_1
*CAP
1 *1004:A 0.000102838
2 *1316:X 0.000102838
*RES
1 *1316:X *1004:A 20.2786 
*END

*D_NET *285 0.00224152
*CONN
*I *1298:A I *D sky130_fd_sc_hd__dlygate4sd3_1
*I *1326:A I *D sky130_fd_sc_hd__clkbuf_4
*I *1280:Q O *D sky130_fd_sc_hd__dfrtp_1
*CAP
1 *1298:A 0
2 *1326:A 0.000547192
3 *1280:Q 0.000231115
4 *285:12 0.000778307
5 *1326:A *1338:A 0
6 *1326:A *1345:A 0.000119125
7 *285:12 *1338:A 0.000153047
8 odata[3] *1326:A 2.51343e-06
9 *1011:A0 *1326:A 0.000148988
10 *1011:A1 *1326:A 0.000229354
11 *1011:S *1326:A 3.18747e-05
*RES
1 *1280:Q *285:12 22.0143 
2 *285:12 *1326:A 29.1214 
3 *285:12 *1298:A 9.3 
*END

*D_NET *286 0.00140957
*CONN
*I *1327:A I *D sky130_fd_sc_hd__clkbuf_4
*I *1169:X O *D sky130_fd_sc_hd__clkbuf_1
*CAP
1 *1327:A 0.000340514
2 *1169:X 0.000340514
3 *1327:A *292:14 0.000662836
4 oaddr[0] *1327:A 6.57026e-05
*RES
1 *1169:X *1327:A 36.4571 
*END

*D_NET *287 0.00331612
*CONN
*I *1328:A I *D sky130_fd_sc_hd__clkbuf_4
*I *1170:Y O *D sky130_fd_sc_hd__o21ai_1
*CAP
1 *1328:A 0.0010445
2 *1170:Y 0.0010445
3 *1328:A *1145:A0 5.80706e-06
4 *1328:A *292:14 0
5 *1109:S *1328:A 3.34366e-05
6 *1115:A2 *1328:A 0.00012401
7 *1115:A3 *1328:A 0.000147474
8 *1117:A1 *1328:A 0.000185643
9 *1117:A2 *1328:A 2.14658e-05
10 *1117:A3 *1328:A 3.22834e-05
11 *1117:B1 *1328:A 0
12 *1144:A *1328:A 6.30292e-05
13 *1145:A1 *1328:A 2.59355e-05
14 *1145:S *1328:A 1.59373e-05
15 *1170:A1 *1328:A 4.82947e-05
16 *1170:B1 *1328:A 1.32056e-05
17 *1179:A1 *1328:A 5.26184e-05
18 *1179:B1_N *1328:A 0
19 *192:56 *1328:A 0
20 *192:60 *1328:A 1.93106e-05
21 *198:8 *1328:A 0.00015234
22 *227:12 *1328:A 0.000148903
23 *257:34 *1328:A 0.000132452
24 *258:38 *1328:A 4.98055e-06
*RES
1 *1170:Y *1328:A 48.3143 
*END

*D_NET *288 0.00736549
*CONN
*I *1329:A I *D sky130_fd_sc_hd__clkbuf_4
*I *1172:X O *D sky130_fd_sc_hd__buf_1
*CAP
1 *1329:A 0
2 *1172:X 0.000175992
3 *288:18 0.00173047
4 *288:10 0.00190646
5 *288:18 *1066:A1 0.000589011
6 *288:18 *298:23 0.000320738
7 *288:18 *298:40 0.0023512
8 *288:18 *348:14 0
9 oaddr[3] *288:10 0
10 oaddr[3] *288:18 0
11 odata[1] *288:18 2.62984e-05
12 odata[4] *288:18 0
13 pass_thru_mgmt *288:18 2.26973e-05
14 wrstb *288:18 6.76337e-05
15 *1214:B *288:18 0
16 *1322:A *288:18 0
17 *136:74 *288:10 5.96101e-05
18 *136:74 *288:18 3.37718e-05
19 *136:89 *288:10 8.16036e-05
*RES
1 *1172:X *288:10 17.7554 
2 *288:10 *288:18 49.9554 
3 *288:18 *1329:A 9.3 
*END

*D_NET *289 0.000258433
*CONN
*I *1330:A I *D sky130_fd_sc_hd__clkbuf_4
*I *1174:X O *D sky130_fd_sc_hd__clkbuf_1
*CAP
1 *1330:A 7.52218e-05
2 *1174:X 7.52218e-05
3 *1330:A *1338:A 2.79092e-05
4 *136:89 *1330:A 8.00806e-05
*RES
1 *1174:X *1330:A 29.3679 
*END

*D_NET *290 0.000673251
*CONN
*I *1331:A I *D sky130_fd_sc_hd__buf_2
*I *1176:X O *D sky130_fd_sc_hd__clkbuf_1
*CAP
1 *1331:A 0.000188197
2 *1176:X 0.000188197
3 *1331:A *1338:A 0.000151355
4 *1331:A *1346:A 7.57518e-05
5 *1176:A *1331:A 6.97494e-05
*RES
1 *1176:X *1331:A 31.3143 
*END

*D_NET *291 0.000526511
*CONN
*I *1332:A I *D sky130_fd_sc_hd__clkbuf_4
*I *1178:X O *D sky130_fd_sc_hd__clkbuf_1
*CAP
1 *1332:A 0.000178653
2 *1178:X 0.000178653
3 *1332:A *1340:A 0.000144773
4 oaddr[5] *1332:A 2.44318e-05
5 oaddr[7] *1332:A 0
*RES
1 *1178:X *1332:A 31.3143 
*END

*D_NET *292 0.00332572
*CONN
*I *1333:A I *D sky130_fd_sc_hd__clkbuf_4
*I *1179:X O *D sky130_fd_sc_hd__a21bo_1
*CAP
1 *1333:A 0
2 *1179:X 0.00110886
3 *292:14 0.00110886
4 *292:14 *1168:A1 0.000163569
5 *292:14 *293:23 0
6 *1146:A1 *292:14 2.79092e-05
7 *1147:A *292:14 8.06331e-05
8 *1169:A *292:14 6.97972e-05
9 *1241:D *292:14 0.00010326
10 *1327:A *292:14 0.000662836
11 *1328:A *292:14 0
*RES
1 *1179:X *292:14 43.5857 
2 *292:14 *1333:A 9.3 
*END

*D_NET *293 0.0259435
*CONN
*I *1072:A1 I *D sky130_fd_sc_hd__mux2_1
*I *1088:A0 I *D sky130_fd_sc_hd__mux2_1
*I *1052:A1 I *D sky130_fd_sc_hd__a32o_1
*I *1058:A1 I *D sky130_fd_sc_hd__a41o_1
*I *1084:A I *D sky130_fd_sc_hd__nand2_1
*I *1281:A I *D sky130_fd_sc_hd__clkbuf_1
*I *1145:A0 I *D sky130_fd_sc_hd__mux2_1
*I *1168:A1 I *D sky130_fd_sc_hd__mux2_1
*I *1317:X O *D sky130_fd_sc_hd__buf_2
*CAP
1 *1072:A1 0.00125681
2 *1088:A0 0
3 *1052:A1 8.78756e-05
4 *1058:A1 3.07e-05
5 *1084:A 2.68336e-05
6 *1281:A 0.000827795
7 *1145:A0 6.38011e-05
8 *1168:A1 0.000238259
9 *1317:X 0.000271596
10 *293:118 0.00176994
11 *293:101 0.00100408
12 *293:86 0.00165466
13 *293:67 0.00136519
14 *293:46 0.0019605
15 *293:42 0.00252434
16 *293:23 0.00187024
17 *293:6 0.000807187
18 *1052:A1 *305:16 1.40034e-05
19 *1072:A1 *1072:S 3.18676e-05
20 *1072:A1 *1088:A1 2.14658e-05
21 *1072:A1 *356:10 8.32236e-05
22 *1072:A1 *362:12 5.71472e-05
23 *1084:A *1075:A1 1.04232e-05
24 *1084:A *1082:A1 9.25014e-06
25 *1084:A *357:31 5.66157e-05
26 *293:46 *1059:B 7.85886e-05
27 *293:46 *357:25 0
28 *293:67 *1075:A1 1.56e-05
29 *293:67 *1084:B 2.59355e-05
30 *293:86 *357:25 3.07455e-05
31 *293:86 *357:31 0.000108058
32 *293:118 *1088:A1 2.89114e-05
33 *293:118 *305:16 9.60984e-05
34 *1052:A3 *1052:A1 5.52238e-05
35 *1052:A3 *293:101 0.000144038
36 *1058:A2 *1058:A1 1.21258e-05
37 *1058:B1 *1058:A1 5.33005e-05
38 *1058:B1 *293:101 0.000220208
39 *1088:S *293:118 1.55885e-05
40 *1120:A2 *293:46 0
41 *1131:B *293:42 0.00019835
42 *1140:A *293:42 0.000789046
43 *1144:A *1145:A0 0
44 *1146:A0 *293:42 0.000184745
45 *1146:A1 *1145:A0 0
46 *1146:S *293:42 0.000206383
47 *1153:A1 *293:118 9.60939e-05
48 *1153:A3 *1052:A1 9.41642e-05
49 *1153:A3 *293:101 3.69949e-05
50 *1153:A3 *293:118 2.83192e-05
51 *1157:B1 *1072:A1 6.91215e-06
52 *1184:A *293:46 0
53 *1241:D *293:6 5.39166e-06
54 *1252:D *1072:A1 0.000314139
55 *1253:CLK *1072:A1 0.000700627
56 *1266:CLK *293:101 0.000773327
57 *1266:D *1052:A1 8.43535e-06
58 *1266:D *293:118 6.05161e-06
59 *1268:D *293:46 0.000150625
60 *1271:D *293:46 0.000129868
61 *1328:A *1145:A0 5.80706e-06
62 *131:61 *293:46 0
63 *131:76 *293:46 0
64 *133:34 *1281:A 0.000346742
65 *133:34 *293:46 0
66 *133:49 *293:46 0.00019549
67 *133:66 *293:46 0.00053625
68 *154:14 *1072:A1 0.000226785
69 *155:6 *293:86 0.000527241
70 *155:51 *293:86 0.000477557
71 *155:77 *293:86 0.00030178
72 *155:96 *1058:A1 5.33005e-05
73 *155:96 *293:86 0.000166264
74 *155:96 *293:101 8.17502e-05
75 *155:104 *1052:A1 2.89016e-05
76 *155:104 *293:118 0
77 *156:93 *293:101 6.20855e-06
78 *157:50 *293:101 5.64742e-05
79 *165:8 *1084:A 2.58997e-05
80 *165:8 *293:46 0
81 *165:8 *293:86 5.10822e-05
82 *165:28 *1084:A 1.02504e-05
83 *187:10 *1052:A1 4.27338e-05
84 *197:38 *293:42 3.15739e-05
85 *201:14 *293:46 0
86 *246:24 *293:46 4.48583e-05
87 *246:66 *293:42 4.92489e-05
88 *246:66 *293:46 0.000115951
89 *246:75 *293:42 0.000137043
90 *250:36 *1281:A 0.000382581
91 *250:99 *1072:A1 6.06154e-05
92 *250:133 *1072:A1 6.30282e-05
93 *251:29 *1281:A 0
94 *251:55 *1281:A 0
95 *251:55 *293:46 0.000123912
96 *253:12 *1168:A1 0
97 *253:12 *293:23 0
98 *253:36 *1168:A1 0
99 *257:14 *293:46 0.000104236
100 *257:88 *293:42 0.000455316
101 *257:88 *293:46 2.79832e-05
102 *265:12 *1281:A 0.000187326
103 *265:26 *1281:A 2.59355e-05
104 *270:92 *1072:A1 0.000123295
105 *271:76 *293:101 1.39726e-05
106 *271:93 *293:101 3.48235e-05
107 *292:14 *1168:A1 0.000163569
108 *292:14 *293:23 0
*RES
1 *1317:X *293:6 12.3 
2 *293:6 *1168:A1 23.8893 
3 *293:6 *293:23 8.82143 
4 *293:23 *1145:A0 14.8357 
5 *293:23 *293:42 34.3661 
6 *293:42 *293:46 29.2589 
7 *293:46 *1281:A 37.7464 
8 *293:46 *293:67 6.26786 
9 *293:67 *1084:A 14.6661 
10 *293:67 *293:86 22.7143 
11 *293:86 *1058:A1 10.2464 
12 *293:86 *293:101 20.5 
13 *293:101 *1052:A1 11.925 
14 *293:101 *293:118 8.07143 
15 *293:118 *1088:A0 9.3 
16 *293:118 *1072:A1 42.4429 
*END

*D_NET *294 0.00358908
*CONN
*I *1109:A0 I *D sky130_fd_sc_hd__mux2_1
*I *1334:A I *D sky130_fd_sc_hd__clkbuf_4
*I *1105:X O *D sky130_fd_sc_hd__buf_1
*CAP
1 *1109:A0 0.000126506
2 *1334:A 0.00100825
3 *1105:X 0.00020276
4 *294:8 0.00133751
5 *1109:A0 *1112:A0 8.00806e-05
6 odata[7] *1334:A 0
7 *1103:B_N *1109:A0 0
8 *1105:A *1109:A0 0
9 *1113:A *1109:A0 0
10 *1113:A *1334:A 0.00014183
11 *1248:D *1334:A 0.000104294
12 *243:16 *1334:A 0.000522024
13 *265:79 *1334:A 6.58289e-05
*RES
1 *1105:X *294:8 12.5232 
2 *294:8 *1334:A 41.6839 
3 *294:8 *1109:A0 20.7018 
*END

*D_NET *295 0.000349848
*CONN
*I *1335:A I *D sky130_fd_sc_hd__clkbuf_4
*I *1281:X O *D sky130_fd_sc_hd__clkbuf_1
*CAP
1 *1335:A 5.24921e-05
2 *1281:X 5.24921e-05
3 *1335:A *1305:A 0.000125731
4 *1262:RESET_B *1335:A 8.00806e-05
5 *250:36 *1335:A 3.90513e-05
*RES
1 *1281:X *1335:A 29.5464 
*END

*D_NET *296 0.00418986
*CONN
*I *1336:A I *D sky130_fd_sc_hd__clkbuf_4
*I *1072:A0 I *D sky130_fd_sc_hd__mux2_1
*I *1070:A1 I *D sky130_fd_sc_hd__mux2_1
*I *1257:Q O *D sky130_fd_sc_hd__dfrtp_1
*CAP
1 *1336:A 0.000226382
2 *1072:A0 0.000214297
3 *1070:A1 0.000371197
4 *1257:Q 0
5 *296:8 0.000998891
6 *296:4 0.000639779
7 *1070:A1 *1068:A1 0.000172309
8 *1070:A1 *1070:A0 1.24368e-05
9 *1070:A1 *1072:S 9.27779e-05
10 *1070:A1 *313:23 5.35516e-05
11 *1072:A0 *1072:S 6.405e-05
12 *1336:A *298:40 0.000591441
13 *1336:A *337:12 0.000591441
14 *1257:CLK *1070:A1 0
15 *1257:D *1072:A0 7.6644e-05
16 *1257:D *296:8 2.89114e-05
17 *250:133 *1072:A0 5.57541e-05
*RES
1 *1257:Q *296:4 9.3 
2 *296:4 *296:8 11.1964 
3 *296:8 *1070:A1 21.5857 
4 *296:8 *1072:A0 17.7107 
5 *296:4 *1336:A 27.0679 
*END

*D_NET *297 0.00329566
*CONN
*I *1068:A1 I *D sky130_fd_sc_hd__mux2_1
*I *1070:A0 I *D sky130_fd_sc_hd__mux2_1
*I *1337:A I *D sky130_fd_sc_hd__clkbuf_4
*I *1258:Q O *D sky130_fd_sc_hd__dfrtp_1
*CAP
1 *1068:A1 0.000102848
2 *1070:A0 3.95576e-05
3 *1337:A 0.000589442
4 *1258:Q 0.000148431
5 *297:21 0.000305519
6 *297:8 0.000900987
7 *1068:A1 *313:30 0.00022918
8 *1068:A1 *313:41 8.67797e-05
9 *1337:A *1064:A1 5.57914e-05
10 *1337:A *313:41 0
11 *297:21 *313:41 0
12 *1067:A *1337:A 0
13 *1070:A1 *1068:A1 0.000172309
14 *1070:A1 *1070:A0 1.24368e-05
15 *1215:A *1337:A 0
16 *1257:CLK *297:21 0.000126439
17 *1260:D *1337:A 0
18 *1261:CLK *1337:A 0
19 *1261:D *1337:A 6.74911e-05
20 *251:114 *297:8 0.000209956
21 *266:120 *1337:A 0.000128161
22 *266:120 *297:21 0.000120332
23 *266:124 *1337:A 0
*RES
1 *1258:Q *297:8 15.9786 
2 *297:8 *1337:A 25.4607 
3 *297:8 *297:21 7.66071 
4 *297:21 *1070:A0 9.83571 
5 *297:21 *1068:A1 12.7107 
*END

*D_NET *298 0.0142244
*CONN
*I *1338:A I *D sky130_fd_sc_hd__clkbuf_4
*I *1068:A0 I *D sky130_fd_sc_hd__mux2_1
*I *1066:A1 I *D sky130_fd_sc_hd__mux2_1
*I *1259:Q O *D sky130_fd_sc_hd__dfrtp_1
*CAP
1 *1338:A 0.00113333
2 *1068:A0 0.000384053
3 *1066:A1 0.00057648
4 *1259:Q 9.31148e-05
5 *298:40 0.00184696
6 *298:23 0.00119021
7 *298:8 0.000762124
8 *1066:A1 *337:12 0.000376277
9 *1068:A0 *313:41 5.49489e-05
10 *1338:A *1343:A 3.17148e-05
11 *1338:A *1345:A 3.5707e-05
12 *1338:A *1346:A 0.000220198
13 *298:23 *337:12 0.000167983
14 *298:40 *303:31 5.33005e-05
15 *298:40 *337:12 0.000315255
16 oaddr[4] *1338:A 2.11419e-05
17 *1011:A1 *1338:A 0
18 *1016:A1 *1338:A 0.00019197
19 *1017:A0 *1338:A 0.000344925
20 *1019:B *1338:A 0.000550286
21 *1020:A1 *1338:A 9.9784e-05
22 *1039:A *1338:A 0
23 *1069:A *1068:A0 5.33334e-05
24 *1214:A *1066:A1 5.52238e-05
25 *1214:B *1066:A1 9.71197e-05
26 *1260:RESET_B *1066:A1 5.52238e-05
27 *1278:RESET_B *1338:A 2.28335e-05
28 *1280:RESET_B *1338:A 0
29 *1321:A *1066:A1 5.71472e-05
30 *1324:A *1338:A 0
31 *1326:A *1338:A 0
32 *1330:A *1338:A 2.79092e-05
33 *1331:A *1338:A 0.000151355
34 *1336:A *298:40 0.000591441
35 *132:93 *1338:A 0
36 *136:55 *298:40 0.000442078
37 *136:74 *298:40 0.000728672
38 *136:89 *1338:A 0
39 *277:24 *1338:A 0
40 *280:10 *1338:A 7.83366e-05
41 *285:12 *1338:A 0.000153047
42 *288:18 *1066:A1 0.000589011
43 *288:18 *298:23 0.000320738
44 *288:18 *298:40 0.0023512
*RES
1 *1259:Q *298:8 14.7464 
2 *298:8 *1066:A1 27.925 
3 *298:8 *298:23 4.07143 
4 *298:23 *1068:A0 20.0857 
5 *298:23 *298:40 40.3393 
6 *298:40 *1338:A 42.4607 
*END

*D_NET *299 0.00331479
*CONN
*I *1339:A I *D sky130_fd_sc_hd__buf_2
*I *1066:A0 I *D sky130_fd_sc_hd__mux2_1
*I *1064:A1 I *D sky130_fd_sc_hd__mux2_1
*I *1260:Q O *D sky130_fd_sc_hd__dfrtp_1
*CAP
1 *1339:A 7.15904e-05
2 *1066:A0 0
3 *1064:A1 0.000379889
4 *1260:Q 0
5 *299:12 0.00101655
6 *299:4 0.000708254
7 *1064:A1 *1064:S 0.000404707
8 *299:12 *313:41 6.24469e-05
9 odata[2] *1064:A1 3.48705e-05
10 *1067:A *1064:A1 0.000103267
11 *1260:D *1064:A1 2.58997e-05
12 *1260:D *299:12 0.000120082
13 *1261:CLK *1064:A1 5.52302e-05
14 *1261:D *1064:A1 0.000276211
15 *1337:A *1064:A1 5.57914e-05
*RES
1 *1260:Q *299:4 9.3 
2 *299:4 *299:12 16.9286 
3 *299:12 *1064:A1 27.925 
4 *299:12 *1066:A0 9.3 
5 *299:4 *1339:A 10.5679 
*END

*D_NET *300 0.00919945
*CONN
*I *1064:A0 I *D sky130_fd_sc_hd__mux2_1
*I *1062:A1 I *D sky130_fd_sc_hd__mux2_1
*I *1340:A I *D sky130_fd_sc_hd__clkbuf_4
*I *1261:Q O *D sky130_fd_sc_hd__dfrtp_1
*CAP
1 *1064:A0 0.000410165
2 *1062:A1 0
3 *1340:A 0.000491735
4 *1261:Q 0.000131285
5 *300:16 0.00269197
6 *300:12 0.00274168
7 *1340:A *1062:A0 3.18676e-05
8 *300:16 *1062:A0 0.000139482
9 *300:16 *1305:A 5.52238e-05
10 *300:16 *1344:A 0.000374599
11 *300:16 *1349:A 7.77751e-05
12 oaddr[5] *1340:A 0.000188586
13 odata[2] *1064:A0 0.000142856
14 *1006:A *300:16 5.71472e-05
15 *1063:A *1340:A 3.18676e-05
16 *1065:A *1064:A0 0.000146374
17 *1065:A *300:12 3.1367e-05
18 *1210:B *300:16 0.000841324
19 *1216:B *300:16 2.28499e-05
20 *1256:RESET_B *300:16 0.000144773
21 *1261:D *1064:A0 2.54304e-06
22 *1262:RESET_B *300:16 0.000229456
23 *1332:A *1340:A 0.000144773
24 *250:36 *300:16 6.97409e-05
*RES
1 *1261:Q *300:12 20.5857 
2 *300:12 *300:16 41.625 
3 *300:16 *1340:A 19.3179 
4 *300:16 *1062:A1 9.3 
5 *300:12 *1064:A0 15.2821 
*END

*D_NET *301 0.0021313
*CONN
*I *1341:A I *D sky130_fd_sc_hd__clkbuf_4
*I *1060:A1 I *D sky130_fd_sc_hd__mux2_1
*I *1305:A I *D sky130_fd_sc_hd__dlygate4sd3_1
*I *1262:Q O *D sky130_fd_sc_hd__dfrtp_1
*CAP
1 *1341:A 0
2 *1060:A1 9.53087e-05
3 *1305:A 0.000104041
4 *1262:Q 0
5 *301:23 0.000302397
6 *301:6 0.000311129
7 *1060:A1 *1060:A0 1.74352e-05
8 odata[6] *1060:A1 0.000185643
9 *1262:RESET_B *1305:A 1.41029e-05
10 *1262:RESET_B *301:23 4.58096e-05
11 *1335:A *1305:A 0.000125731
12 *133:34 *301:23 9.25014e-06
13 *165:28 *1060:A1 0.000272371
14 *165:28 *301:23 0.000316416
15 *248:20 *1060:A1 2.28499e-05
16 *248:20 *301:23 2.14658e-05
17 *249:33 *1060:A1 6.05161e-06
18 *249:33 *301:23 0.000184532
19 *250:36 *301:23 4.15432e-05
20 *300:16 *1305:A 5.52238e-05
*RES
1 *1262:Q *301:6 13.8 
2 *301:6 *1305:A 16.2821 
3 *301:6 *301:23 10.7679 
4 *301:23 *1060:A1 12.7107 
5 *301:23 *1341:A 9.3 
*END

*D_NET *302 0.00251158
*CONN
*I *1342:A I *D sky130_fd_sc_hd__clkbuf_4
*I *1300:A I *D sky130_fd_sc_hd__dlygate4sd3_1
*I *1263:Q O *D sky130_fd_sc_hd__dfrtp_1
*CAP
1 *1342:A 0.000850502
2 *1300:A 0.000147996
3 *1263:Q 0
4 *302:6 0.000998498
5 *1255:D *1342:A 4.87995e-05
6 *1263:RESET_B *1300:A 0.000315165
7 *248:20 *1300:A 5.7616e-05
8 *248:20 *1342:A 9.30093e-05
9 *249:33 *1300:A 0
10 *249:33 *1342:A 0
*RES
1 *1263:Q *302:6 13.8 
2 *302:6 *1300:A 17.5321 
3 *302:6 *1342:A 27.175 
*END

*D_NET *303 0.00804934
*CONN
*I *1343:A I *D sky130_fd_sc_hd__buf_2
*I *1307:A I *D sky130_fd_sc_hd__dlygate4sd3_1
*I *1237:Q O *D sky130_fd_sc_hd__dfrtp_1
*CAP
1 *1343:A 0.0009565
2 *1307:A 0.000192438
3 *1237:Q 0.000159415
4 *303:31 0.00181339
5 *303:6 0.00120875
6 *1343:A *1025:A1 0.00027438
7 *1343:A *337:12 0.00128426
8 *1343:A *348:14 0
9 *303:6 *1020:A0 0.000122091
10 *303:31 *1020:A0 0.00021529
11 *1019:B *303:31 8.86911e-05
12 *1020:A1 *1343:A 0.000215049
13 *1020:A1 *303:31 2.40619e-05
14 *1020:S *303:31 0.000229116
15 *1025:A0 *1343:A 8.47107e-05
16 *1233:A *1307:A 0
17 *1277:RESET_B *1343:A 0.000103983
18 *1338:A *1343:A 3.17148e-05
19 *134:60 *1307:A 0
20 *134:76 *303:31 0.00010096
21 *136:42 *1343:A 0
22 *136:55 *1343:A 6.7257e-05
23 *136:74 *1343:A 0.000200276
24 *138:20 *1343:A 0
25 *138:26 *1343:A 0.000365689
26 *277:24 *1343:A 0
27 *277:24 *303:31 0.000103253
28 *279:10 *1343:A 0.000154762
29 *298:40 *303:31 5.33005e-05
*RES
1 *1237:Q *303:6 11.4786 
2 *303:6 *1307:A 21.5857 
3 *303:6 *303:31 26.1786 
4 *303:31 *1343:A 42.3 
*END

*D_NET *304 0.0025945
*CONN
*I *1041:B2 I *D sky130_fd_sc_hd__a22o_1
*I *1318:X O *D sky130_fd_sc_hd__clkbuf_1
*CAP
1 *1041:B2 0.000761912
2 *1318:X 0.000761912
3 *1041:B2 *1036:A0 2.56694e-05
4 *1041:B2 *1037:A1 0
5 *1011:A0 *1041:B2 0.00101657
6 *1032:S *1041:B2 0
7 *1036:S *1041:B2 0
8 *1037:S *1041:B2 0
9 *1294:A *1041:B2 0
10 *1319:A *1041:B2 2.84398e-05
11 *136:103 *1041:B2 0
12 *136:120 *1041:B2 0
13 *138:63 *1041:B2 0
*RES
1 *1318:X *1041:B2 42.7607 
*END

*D_NET *305 0.00905646
*CONN
*I *1180:B I *D sky130_fd_sc_hd__or2_1
*I *1153:B1 I *D sky130_fd_sc_hd__o31a_1
*I *1344:A I *D sky130_fd_sc_hd__clkbuf_4
*I *1238:Q O *D sky130_fd_sc_hd__dfrtp_1
*CAP
1 *1180:B 0.000258283
2 *1153:B1 0
3 *1344:A 0.00047622
4 *1238:Q 0
5 *305:28 0.00200125
6 *305:16 0.0020803
7 *305:4 0.000813553
8 *1180:B *1167:A1 0
9 *1180:B *354:59 0.000315187
10 *305:16 *1154:A1 3.67548e-05
11 *305:16 *1157:A1 0
12 *305:16 *354:59 0
13 *305:16 *359:91 0.00017309
14 *305:28 *1154:A1 0
15 *1006:A *305:28 6.25468e-05
16 *1052:A1 *305:16 1.40034e-05
17 *1097:A *305:28 0
18 *1153:A1 *305:16 9.60939e-05
19 *1153:A1 *305:28 0.000168224
20 *1153:A2 *305:16 5.33005e-05
21 *1153:A2 *305:28 2.0362e-05
22 *1153:A3 *305:16 5.33005e-05
23 *1154:B1 *305:16 0.000127439
24 *1238:RESET_B *305:16 5.41794e-05
25 *1250:D *305:28 0.000119708
26 *1251:CLK *305:28 0
27 *1264:RESET_B *305:28 6.48957e-05
28 *1266:CLK *305:28 0.000947347
29 *1266:D *305:16 0
30 *1314:A *305:28 0
31 *133:14 *305:28 0
32 *156:93 *305:28 0
33 *156:95 *305:28 0
34 *156:108 *305:28 0
35 *187:10 *305:16 7.80417e-05
36 *187:14 *305:28 0
37 *246:24 *1180:B 0
38 *250:91 *305:28 0.000159007
39 *261:42 *305:16 0
40 *266:12 *305:28 0
41 *268:16 *1180:B 0.000173836
42 *268:16 *305:16 0.000139208
43 *270:24 *305:28 9.96331e-05
44 *270:32 *305:28 0
45 *293:118 *305:16 9.60984e-05
46 *300:16 *1344:A 0.000374599
*RES
1 *1238:Q *305:4 9.3 
2 *305:4 *305:16 21.3929 
3 *305:16 *305:28 42.0893 
4 *305:28 *1344:A 18.4607 
5 *305:16 *1153:B1 9.3 
6 *305:4 *1180:B 24.1393 
*END

*D_NET *306 0.000987506
*CONN
*I *1345:A I *D sky130_fd_sc_hd__clkbuf_4
*I *1181:X O *D sky130_fd_sc_hd__clkbuf_1
*CAP
1 *1345:A 0.000396249
2 *1181:X 0.000396249
3 *1345:A *1013:A1 4.01768e-05
4 *1326:A *1345:A 0.000119125
5 *1338:A *1345:A 3.5707e-05
*RES
1 *1181:X *1345:A 33.1714 
*END

*D_NET *307 0.00330672
*CONN
*I *1346:A I *D sky130_fd_sc_hd__clkbuf_4
*I *1290:A I *D sky130_fd_sc_hd__dlygate4sd3_1
*I *1239:Q O *D sky130_fd_sc_hd__dfrtp_1
*CAP
1 *1346:A 0.000917258
2 *1290:A 2.23854e-05
3 *1239:Q 0.000251215
4 *307:8 0.00119086
5 *1346:A *1016:A0 0.000138322
6 *1346:A *1017:A1 7.83659e-05
7 *307:8 *1152:B1 1.07719e-05
8 *1017:A0 *1346:A 0.00010096
9 *1331:A *1346:A 7.57518e-05
10 *1338:A *1346:A 0.000220198
11 *136:97 *1346:A 0.000300635
*RES
1 *1239:Q *307:8 13.1393 
2 *307:8 *1290:A 9.72857 
3 *307:8 *1346:A 37.8179 
*END

*D_NET *308 0.00303603
*CONN
*I *1347:A I *D sky130_fd_sc_hd__clkbuf_4
*I *1182:B I *D sky130_fd_sc_hd__or2_1
*I *1149:A1 I *D sky130_fd_sc_hd__mux2_1
*I *1240:Q O *D sky130_fd_sc_hd__dfrtp_1
*CAP
1 *1347:A 0.000223719
2 *1182:B 0
3 *1149:A1 0.000106159
4 *1240:Q 0.000340474
5 *308:12 0.000204214
6 *308:8 0.000662248
7 *1149:A1 *1149:A0 0.000227532
8 *1347:A *1350:A 0.000366344
9 *1347:A *311:12 0.00011833
10 *1347:A *326:12 0.000666067
11 *308:12 *311:12 9.01238e-05
12 *1149:S *308:12 1.88048e-05
13 *1240:CLK *308:12 0
14 *1240:RESET_B *308:8 1.20135e-05
*RES
1 *1240:Q *308:8 17.6214 
2 *308:8 *308:12 6.75 
3 *308:12 *1149:A1 11.4786 
4 *308:12 *1182:B 9.3 
5 *308:8 *1347:A 22.9429 
*END

*D_NET *309 0.000269397
*CONN
*I *1348:A I *D sky130_fd_sc_hd__clkbuf_4
*I *1183:X O *D sky130_fd_sc_hd__clkbuf_1
*CAP
1 *1348:A 0.000134699
2 *1183:X 0.000134699
3 *1348:A *311:12 0
*RES
1 *1183:X *1348:A 29.475 
*END

*D_NET *310 0.00680157
*CONN
*I *1293:A I *D sky130_fd_sc_hd__dlygate4sd3_1
*I *1156:A2 I *D sky130_fd_sc_hd__o211a_1
*I *1349:A I *D sky130_fd_sc_hd__clkbuf_4
*I *1236:Q O *D sky130_fd_sc_hd__dfrtp_1
*CAP
1 *1293:A 5.65308e-05
2 *1156:A2 3.38007e-05
3 *1349:A 0.00152121
4 *1236:Q 0.000230558
5 *310:12 0.001891
6 *310:10 0.000623076
7 *1156:A2 *1156:A1 5.7661e-06
8 *1293:A *359:91 6.62983e-05
9 *1349:A *354:10 4.63862e-05
10 *310:10 *354:59 0.000140361
11 *310:12 *1156:A1 6.42242e-05
12 *310:12 *354:59 0.000379863
13 *1088:S *1349:A 0
14 *1088:S *310:12 0
15 *1089:A *310:12 0
16 *1091:A2 *1349:A 4.47937e-05
17 *1157:A2 *310:12 3.5707e-05
18 *1157:B1 *310:12 5.44167e-05
19 *1250:RESET_B *1349:A 0
20 *1251:RESET_B *1349:A 6.95205e-05
21 *1253:CLK *1349:A 0
22 *136:10 *1349:A 8.97552e-05
23 *136:29 *1349:A 9.56557e-05
24 *156:14 *1349:A 0.000474605
25 *159:71 *1156:A2 1.04232e-05
26 *159:77 *1349:A 0.000271958
27 *159:77 *310:12 4.97876e-05
28 *187:14 *1349:A 0
29 *193:33 *1293:A 0.000140933
30 *193:50 *310:10 5.03694e-05
31 *193:50 *310:12 6.8646e-06
32 *248:41 *1349:A 1.96737e-05
33 *248:65 *1349:A 0.000170523
34 *266:53 *1349:A 0
35 *268:16 *310:10 7.9741e-05
36 *271:10 *1349:A 0
37 *271:47 *1349:A 0
38 *300:16 *1349:A 7.77751e-05
*RES
1 *1236:Q *310:10 17.925 
2 *310:10 *310:12 8.01786 
3 *310:12 *1349:A 44.4786 
4 *310:12 *1156:A2 14.5321 
5 *310:10 *1293:A 15.5679 
*END

*D_NET *311 0.00720675
*CONN
*I *1350:A I *D sky130_fd_sc_hd__buf_6
*I *1265:Q O *D sky130_fd_sc_hd__dfstp_1
*CAP
1 *1350:A 0.000817076
2 *1265:Q 0.00104173
3 *311:12 0.00185881
4 *1350:A *326:12 0.00100359
5 *1149:S *311:12 0
6 *1190:B *311:12 0
7 *1240:RESET_B *311:12 0
8 *1315:A *1350:A 5.52302e-05
9 *1320:A *1350:A 5.52302e-05
10 *1347:A *1350:A 0.000366344
11 *1347:A *311:12 0.00011833
12 *1348:A *311:12 0
13 *256:6 *311:12 4.05947e-05
14 *283:8 *1350:A 0.0017597
15 *308:12 *311:12 9.01238e-05
*RES
1 *1265:Q *311:12 34.8089 
2 *311:12 *1350:A 38.1929 
*END

*D_NET *312 0.00179532
*CONN
*I *1351:A I *D sky130_fd_sc_hd__buf_2
*I *1313:A I *D sky130_fd_sc_hd__dlygate4sd3_1
*I *1267:Q O *D sky130_fd_sc_hd__dfrtp_1
*CAP
1 *1351:A 0.000324627
2 *1313:A 0
3 *1267:Q 6.82692e-05
4 *312:10 0.000392896
5 *1351:A *1277:CLK 1.69175e-05
6 *312:10 *1277:CLK 3.84349e-05
7 *1025:S *1351:A 4.27438e-05
8 *1232:A *1351:A 0.000141734
9 *1276:RESET_B *312:10 0.00015234
10 *138:32 *1351:A 0.000617355
*RES
1 *1267:Q *312:10 20.2464 
2 *312:10 *1313:A 9.3 
3 *312:10 *1351:A 17.3714 
*END

*D_NET *313 0.0110764
*CONN
*I *1072:S I *D sky130_fd_sc_hd__mux2_1
*I *1066:S I *D sky130_fd_sc_hd__mux2_1
*I *1064:S I *D sky130_fd_sc_hd__mux2_1
*I *1068:S I *D sky130_fd_sc_hd__mux2_1
*I *1070:S I *D sky130_fd_sc_hd__mux2_1
*I *1075:B1 I *D sky130_fd_sc_hd__a32o_1
*I *1325:X O *D sky130_fd_sc_hd__buf_2
*CAP
1 *1072:S 0.00022232
2 *1066:S 0
3 *1064:S 0.00039783
4 *1068:S 0
5 *1070:S 0
6 *1075:B1 3.78839e-05
7 *1325:X 0.000125006
8 *313:41 0.00118036
9 *313:30 0.000874769
10 *313:23 0.00015376
11 *313:19 0.00155716
12 *313:6 0.00143621
13 *1064:S *348:14 0
14 *313:41 *348:14 0
15 odata[2] *1064:S 5.62995e-05
16 *1009:A *313:19 5.33005e-05
17 *1047:A *313:19 0.000107022
18 *1055:A *313:19 4.87953e-05
19 *1064:A1 *1064:S 0.000404707
20 *1067:A *1064:S 5.52302e-05
21 *1068:A0 *313:41 5.49489e-05
22 *1068:A1 *313:30 0.00022918
23 *1068:A1 *313:41 8.67797e-05
24 *1069:A *313:41 0
25 *1070:A1 *1072:S 9.27779e-05
26 *1070:A1 *313:23 5.35516e-05
27 *1072:A0 *1072:S 6.405e-05
28 *1072:A1 *1072:S 3.18676e-05
29 *1074:A2 *313:6 0.00052833
30 *1074:A2 *313:19 4.18895e-05
31 *1074:D1 *313:19 0.000303972
32 *1075:A2 *1075:B1 2.57162e-05
33 *1075:A2 *313:6 3.48705e-05
34 *1075:A2 *313:19 0.000448594
35 *1075:A3 *1075:B1 3.99614e-06
36 *1075:A3 *313:6 1.32552e-05
37 *1081:B *313:19 0.000182605
38 *1214:A *313:41 0
39 *1257:CLK *1072:S 0.000117144
40 *1257:CLK *313:23 8.15939e-05
41 *1259:D *313:41 0
42 *1260:D *1064:S 5.50313e-05
43 *1260:D *313:41 8.46259e-06
44 *1260:RESET_B *313:41 0
45 *1261:CLK *313:41 0
46 *1337:A *313:41 0
47 *162:18 *313:19 0.0001254
48 *174:6 *313:6 8.36572e-05
49 *174:8 *313:6 0.000266473
50 *250:103 *1072:S 0
51 *250:133 *1072:S 6.70344e-05
52 *250:146 *313:41 0
53 *251:80 *1072:S 0
54 *266:124 *313:41 0
55 *269:16 *313:19 5.52238e-05
56 *270:12 *313:19 0.000268396
57 *270:14 *313:19 5.52302e-05
58 *270:24 *313:19 0.000869935
59 *273:38 *313:6 5.33005e-05
60 *297:21 *313:41 0
61 *299:12 *313:41 6.24469e-05
*RES
1 *1325:X *313:6 14.7643 
2 *313:6 *1075:B1 10.2732 
3 *313:6 *313:19 33.375 
4 *313:19 *313:23 6.44643 
5 *313:23 *1070:S 9.3 
6 *313:23 *313:30 2.17857 
7 *313:30 *1068:S 9.3 
8 *313:30 *313:41 18.8393 
9 *313:41 *1064:S 22.7464 
10 *313:41 *1066:S 13.8 
11 *313:19 *1072:S 20.1571 
*END

*D_NET *314 0.000255636
*CONN
*I *1265:CLK I *D sky130_fd_sc_hd__dfstp_1
*I *1220:Y O *D sky130_fd_sc_hd__inv_2
*CAP
1 *1265:CLK 8.77775e-05
2 *1220:Y 8.77775e-05
3 *1167:B1 *1265:CLK 0
4 *264:12 *1265:CLK 8.00806e-05
*RES
1 *1220:Y *1265:CLK 29.3679 
*END

*D_NET *315 0.000388046
*CONN
*I *1036:A0 I *D sky130_fd_sc_hd__mux2_1
*I *1319:X O *D sky130_fd_sc_hd__clkbuf_1
*CAP
1 *1036:A0 0.00015711
2 *1319:X 0.00015711
3 *1036:A1 *1036:A0 5.19842e-06
4 *1036:S *1036:A0 1.72894e-05
5 *1041:B2 *1036:A0 2.56694e-05
6 *136:103 *1036:A0 2.56694e-05
*RES
1 *1319:X *1036:A0 29.9929 
*END

*D_NET *316 0.000170824
*CONN
*I *1267:CLK I *D sky130_fd_sc_hd__dfrtp_1
*I *1222:Y O *D sky130_fd_sc_hd__inv_2
*CAP
1 *1267:CLK 6.77654e-05
2 *1222:Y 6.77654e-05
3 *1222:A *1267:CLK 3.52933e-05
*RES
1 *1222:Y *1267:CLK 19.9571 
*END

*D_NET *317 0.000443461
*CONN
*I *1273:CLK I *D sky130_fd_sc_hd__dfrtp_1
*I *1228:Y O *D sky130_fd_sc_hd__inv_2
*CAP
1 *1273:CLK 0.000129042
2 *1228:Y 0.000129042
3 *1036:A1 *1273:CLK 2.15245e-05
4 *1036:S *1273:CLK 3.69047e-06
5 *1228:A *1273:CLK 8.00806e-05
6 *136:103 *1273:CLK 8.00806e-05
*RES
1 *1228:Y *1273:CLK 30.4393 
*END

*D_NET *318 0.000133247
*CONN
*I *1274:CLK I *D sky130_fd_sc_hd__dfrtp_1
*I *1229:Y O *D sky130_fd_sc_hd__inv_2
*CAP
1 *1274:CLK 6.66235e-05
2 *1229:Y 6.66235e-05
*RES
1 *1229:Y *1274:CLK 19.5464 
*END

*D_NET *319 0.00046578
*CONN
*I *1275:CLK I *D sky130_fd_sc_hd__dfrtp_1
*I *1230:Y O *D sky130_fd_sc_hd__inv_2
*CAP
1 *1275:CLK 0.000171959
2 *1230:Y 0.000171959
3 *1167:B1 *1275:CLK 0
4 *1275:D *1275:CLK 8.36723e-05
5 *134:35 *1275:CLK 3.81893e-05
*RES
1 *1230:Y *1275:CLK 30.975 
*END

*D_NET *320 0.000339521
*CONN
*I *1276:CLK I *D sky130_fd_sc_hd__dfrtp_1
*I *1231:Y O *D sky130_fd_sc_hd__inv_2
*CAP
1 *1276:CLK 0.000169761
2 *1231:Y 0.000169761
3 *1276:CLK *1045:A2 0
4 *1276:RESET_B *1276:CLK 0
*RES
1 *1231:Y *1276:CLK 30.4393 
*END

*D_NET *321 0.000391988
*CONN
*I *1277:CLK I *D sky130_fd_sc_hd__dfrtp_1
*I *1232:Y O *D sky130_fd_sc_hd__inv_2
*CAP
1 *1277:CLK 0.000142847
2 *1232:Y 0.000142847
3 *1232:A *1277:CLK 3.08664e-05
4 *1276:RESET_B *1277:CLK 2.00751e-05
5 *1351:A *1277:CLK 1.69175e-05
6 *312:10 *1277:CLK 3.84349e-05
*RES
1 *1232:Y *1277:CLK 30.1893 
*END

*D_NET *322 0.000144917
*CONN
*I *1278:CLK I *D sky130_fd_sc_hd__dfrtp_1
*I *1233:Y O *D sky130_fd_sc_hd__inv_2
*CAP
1 *1278:CLK 5.6756e-05
2 *1233:Y 5.6756e-05
3 *240:12 *1278:CLK 3.14048e-05
*RES
1 *1233:Y *1278:CLK 19.5464 
*END

*D_NET *323 0.000350791
*CONN
*I *1279:CLK I *D sky130_fd_sc_hd__dfrtp_1
*I *1234:Y O *D sky130_fd_sc_hd__inv_2
*CAP
1 *1279:CLK 0.0001546
2 *1234:Y 0.0001546
3 *1283:A *1279:CLK 0
4 *134:48 *1279:CLK 0
5 *242:10 *1279:CLK 4.15914e-05
*RES
1 *1234:Y *1279:CLK 30.4393 
*END

*D_NET *324 0.000135783
*CONN
*I *1280:CLK I *D sky130_fd_sc_hd__dfrtp_1
*I *1235:Y O *D sky130_fd_sc_hd__inv_2
*CAP
1 *1280:CLK 4.14703e-05
2 *1235:Y 4.14703e-05
3 *1039:A *1280:CLK 5.28427e-05
*RES
1 *1235:Y *1280:CLK 19.5464 
*END

*D_NET *325 0.00185281
*CONN
*I *1152:B1 I *D sky130_fd_sc_hd__a31o_1
*I *1290:X O *D sky130_fd_sc_hd__dlygate4sd3_1
*CAP
1 *1152:B1 0.000538629
2 *1290:X 0.000538629
3 *1152:B1 *1151:A 0.0001226
4 *1152:A1 *1152:B1 0.000485742
5 *1152:A3 *1152:B1 5.52238e-05
6 *1283:A *1152:B1 7.83587e-05
7 *1301:A *1152:B1 2.28598e-05
8 *138:47 *1152:B1 0
9 *307:8 *1152:B1 1.07719e-05
*RES
1 *1290:X *1152:B1 38.6536 
*END

*D_NET *326 0.00840144
*CONN
*I *1032:A0 I *D sky130_fd_sc_hd__mux2_1
*I *1320:X O *D sky130_fd_sc_hd__clkbuf_1
*CAP
1 *1032:A0 0.000531287
2 *1320:X 0.00253804
3 *326:12 0.00306933
4 *1011:A0 *326:12 0.00012389
5 *1032:S *1032:A0 9.99853e-05
6 *1294:A *1032:A0 0
7 *1315:A *326:12 5.71472e-05
8 *1318:A *326:12 3.18676e-05
9 *1347:A *326:12 0.000666067
10 *1350:A *326:12 0.00100359
11 *138:63 *1032:A0 0
12 *276:8 *1032:A0 3.21345e-05
13 *283:8 *326:12 0.000248098
*RES
1 *1320:X *326:12 49.0143 
2 *326:12 *1032:A0 26.4071 
*END

*D_NET *327 0.000565189
*CONN
*I *1239:D I *D sky130_fd_sc_hd__dfrtp_1
*I *1301:X O *D sky130_fd_sc_hd__dlygate4sd3_1
*CAP
1 *1239:D 0.000256697
2 *1301:X 0.000256697
3 *1189:A *1239:D 4.57445e-05
4 *1239:CLK *1239:D 6.05161e-06
5 *134:60 *1239:D 0
*RES
1 *1301:X *1239:D 31.8321 
*END

*D_NET *328 0.00119152
*CONN
*I *1155:B1 I *D sky130_fd_sc_hd__a21o_1
*I *1307:X O *D sky130_fd_sc_hd__dlygate4sd3_1
*CAP
1 *1155:B1 0.000346296
2 *1307:X 0.000346296
3 *1155:B1 *1155:A1 1.97695e-05
4 *1152:A3 *1155:B1 5.52238e-05
5 *1308:A *1155:B1 0.000312222
6 *240:12 *1155:B1 6.89791e-05
7 *268:56 *1155:B1 4.27338e-05
*RES
1 *1307:X *1155:B1 25.3143 
*END

*D_NET *329 0.000417963
*CONN
*I *1237:D I *D sky130_fd_sc_hd__dfrtp_1
*I *1308:X O *D sky130_fd_sc_hd__dlygate4sd3_1
*CAP
1 *1237:D 0.00010302
2 *1308:X 0.00010302
3 *1237:D *1020:A0 5.17614e-05
4 *1189:B *1237:D 8.00806e-05
5 *1284:A *1237:D 8.00806e-05
*RES
1 *1308:X *1237:D 30.0107 
*END

*D_NET *330 0.000871545
*CONN
*I *1041:A1 I *D sky130_fd_sc_hd__a22o_1
*I *1309:X O *D sky130_fd_sc_hd__dlygate4sd3_1
*CAP
1 *1041:A1 0.000221994
2 *1309:X 0.000221994
3 *1032:S *1041:A1 0.00014285
4 *1040:B *1041:A1 5.52302e-05
5 *1041:B1 *1041:A1 5.33005e-05
6 *138:53 *1041:A1 9.6145e-05
7 *138:55 *1041:A1 5.72899e-05
8 *138:59 *1041:A1 2.27416e-05
*RES
1 *1309:X *1041:A1 23.6536 
*END

*D_NET *331 0.000575707
*CONN
*I *1090:B1 I *D sky130_fd_sc_hd__o21ai_1
*I *1310:X O *D sky130_fd_sc_hd__dlygate4sd3_1
*CAP
1 *1090:B1 0.000178
2 *1310:X 0.000178
3 *1091:B1 *1090:B1 5.30637e-06
4 *136:42 *1090:B1 0.0002144
*RES
1 *1310:X *1090:B1 22.4214 
*END

*D_NET *332 0.000968158
*CONN
*I *1159:B1 I *D sky130_fd_sc_hd__a41o_1
*I *1311:X O *D sky130_fd_sc_hd__dlygate4sd3_1
*CAP
1 *1159:B1 0.000183962
2 *1311:X 0.000183962
3 *1159:B1 *1159:A1 5.46824e-05
4 *1159:A3 *1159:B1 4.5934e-05
5 *1159:A4 *1159:B1 0.000141734
6 *1312:A *1159:B1 0
7 *240:12 *1159:B1 0.000357883
*RES
1 *1311:X *1159:B1 32.6536 
*END

*D_NET *333 0.00073433
*CONN
*I *1269:D I *D sky130_fd_sc_hd__dfrtp_1
*I *1312:X O *D sky130_fd_sc_hd__dlygate4sd3_1
*CAP
1 *1269:D 0.000283846
2 *1312:X 0.000283846
3 *1269:D *355:48 3.92854e-05
4 *1149:S *1269:D 0
5 *241:22 *1269:D 0.000127353
*RES
1 *1312:X *1269:D 32.0643 
*END

*D_NET *334 0.000777841
*CONN
*I *1045:A1 I *D sky130_fd_sc_hd__o211a_1
*I *1313:X O *D sky130_fd_sc_hd__dlygate4sd3_1
*CAP
1 *1045:A1 0.000280903
2 *1313:X 0.000280903
3 *1231:A *1045:A1 0.000135304
4 *1267:D *1045:A1 8.07313e-05
5 *1276:RESET_B *1045:A1 0
*RES
1 *1313:X *1045:A1 33.2071 
*END

*D_NET *335 0.00161206
*CONN
*I *1158:B1 I *D sky130_fd_sc_hd__a31o_1
*I *1291:X O *D sky130_fd_sc_hd__dlygate4sd3_1
*CAP
1 *1158:B1 0.000228828
2 *1291:X 0.000228828
3 *1158:B1 *1020:A0 0.000191423
4 *1158:B1 *1056:A 5.52238e-05
5 *1158:B1 *1272:D 9.41642e-05
6 *1158:B1 *354:80 0.000664215
7 *1158:A3 *1158:B1 4.24329e-05
8 *1292:A *1158:B1 0.000106943
*RES
1 *1291:X *1158:B1 26.2607 
*END

*D_NET *336 0.00103618
*CONN
*I *1272:D I *D sky130_fd_sc_hd__dfrtp_1
*I *1292:X O *D sky130_fd_sc_hd__dlygate4sd3_1
*CAP
1 *1272:D 0.000193152
2 *1292:X 0.000193152
3 *1158:B1 *1272:D 9.41642e-05
4 *1272:CLK *1272:D 6.86693e-05
5 *1292:A *1272:D 9.41642e-05
6 *131:127 *1272:D 0.000123288
7 *132:128 *1272:D 5.08577e-05
8 *133:101 *1272:D 0.000218734
*RES
1 *1292:X *1272:D 32.7607 
*END

*D_NET *337 0.00497354
*CONN
*I *1028:A0 I *D sky130_fd_sc_hd__mux2_1
*I *1321:X O *D sky130_fd_sc_hd__clkbuf_1
*CAP
1 *1028:A0 0
2 *1321:X 0.000832311
3 *337:12 0.000832311
4 *337:12 *348:14 0
5 *1066:A1 *337:12 0.000376277
6 *1214:B *337:12 0.000251243
7 *1336:A *337:12 0.000591441
8 *1343:A *337:12 0.00128426
9 *136:55 *337:12 0.00032246
10 *298:23 *337:12 0.000167983
11 *298:40 *337:12 0.000315255
*RES
1 *1321:X *337:12 49.0143 
2 *337:12 *1028:A0 9.3 
*END

*D_NET *338 0.000522
*CONN
*I *1157:A1 I *D sky130_fd_sc_hd__a22o_1
*I *1293:X O *D sky130_fd_sc_hd__dlygate4sd3_1
*CAP
1 *1157:A1 0.00017799
2 *1293:X 0.00017799
3 *1157:A1 *354:59 8.00806e-05
4 *1157:A2 *1157:A1 1.97695e-05
5 *1157:B1 *1157:A1 2.89114e-05
6 *1157:B2 *1157:A1 3.99614e-06
7 *154:20 *1157:A1 2.95726e-05
8 *154:24 *1157:A1 3.69047e-06
9 *305:16 *1157:A1 0
*RES
1 *1293:X *1157:A1 31.1536 
*END

*D_NET *339 0.000465879
*CONN
*I *1037:A1 I *D sky130_fd_sc_hd__mux2_1
*I *1294:X O *D sky130_fd_sc_hd__dlygate4sd3_1
*CAP
1 *1037:A1 0.000208529
2 *1294:X 0.000208529
3 *1037:A0 *1037:A1 4.88212e-05
4 *1041:B2 *1037:A1 0
5 *1294:A *1037:A1 0
*RES
1 *1294:X *1037:A1 30.4036 
*END

*D_NET *340 0.000818709
*CONN
*I *1112:A0 I *D sky130_fd_sc_hd__mux2_1
*I *1295:X O *D sky130_fd_sc_hd__dlygate4sd3_1
*CAP
1 *1112:A0 0.00024339
2 *1295:X 0.00024339
3 *1103:B_N *1112:A0 0
4 *1104:B1_N *1112:A0 1.3142e-05
5 *1109:A0 *1112:A0 8.00806e-05
6 *1109:S *1112:A0 9.25014e-06
7 *1112:A1 *1112:A0 0.000229456
8 *1113:A *1112:A0 0
9 *243:16 *1112:A0 0
*RES
1 *1295:X *1112:A0 32.6536 
*END

*D_NET *341 0.000504777
*CONN
*I *1029:A1 I *D sky130_fd_sc_hd__mux2_1
*I *1296:X O *D sky130_fd_sc_hd__dlygate4sd3_1
*CAP
1 *1029:A1 0.00014658
2 *1296:X 0.00014658
3 *1029:A0 *1029:A1 0.000135304
4 *1029:S *1029:A1 6.05161e-06
5 *1296:A *1029:A1 0
6 *138:20 *1029:A1 7.02611e-05
*RES
1 *1296:X *1029:A1 30.4214 
*END

*D_NET *342 0.00117781
*CONN
*I *1021:A1 I *D sky130_fd_sc_hd__mux2_1
*I *1297:X O *D sky130_fd_sc_hd__dlygate4sd3_1
*CAP
1 *1021:A1 0.000512287
2 *1297:X 0.000512287
3 *1019:A *1021:A1 2.59355e-05
4 *1022:A *1021:A1 7.57394e-05
5 *1278:D *1021:A1 3.81416e-06
6 *241:22 *1021:A1 4.775e-05
*RES
1 *1297:X *1021:A1 25.7429 
*END

*D_NET *343 0.000783722
*CONN
*I *1013:A1 I *D sky130_fd_sc_hd__mux2_1
*I *1298:X O *D sky130_fd_sc_hd__dlygate4sd3_1
*CAP
1 *1013:A1 0.000332104
2 *1298:X 0.000332104
3 *1013:A0 *1013:A1 2.27416e-05
4 *1014:A *1013:A1 5.65955e-05
5 *1345:A *1013:A1 4.01768e-05
*RES
1 *1298:X *1013:A1 24.0643 
*END

*D_NET *344 8.14581e-05
*CONN
*I *1052:B2 I *D sky130_fd_sc_hd__a32o_1
*I *1299:X O *D sky130_fd_sc_hd__dlygate4sd3_1
*CAP
1 *1052:B2 2.65277e-05
2 *1299:X 2.65277e-05
3 *187:10 *1052:B2 2.84026e-05
*RES
1 *1299:X *1052:B2 19.1357 
*END

*D_NET *345 0.000636844
*CONN
*I *1060:A0 I *D sky130_fd_sc_hd__mux2_1
*I *1300:X O *D sky130_fd_sc_hd__dlygate4sd3_1
*CAP
1 *1060:A0 0.000233912
2 *1300:X 0.000233912
3 odata[6] *1060:A0 1.32552e-05
4 *1060:A1 *1060:A0 1.74352e-05
5 *1302:A *1060:A0 0
6 *248:20 *1060:A0 0.000138328
7 *249:33 *1060:A0 0
*RES
1 *1300:X *1060:A0 31.4393 
*END

*D_NET *346 0.00016543
*CONN
*I *1061:A I *D sky130_fd_sc_hd__clkbuf_1
*I *1302:X O *D sky130_fd_sc_hd__dlygate4sd3_1
*CAP
1 *1061:A 7.18326e-05
2 *1302:X 7.18326e-05
3 *1263:D *1061:A 2.17647e-05
*RES
1 *1302:X *1061:A 19.9571 
*END

*D_NET *347 0.000631649
*CONN
*I *1025:A1 I *D sky130_fd_sc_hd__mux2_1
*I *1303:X O *D sky130_fd_sc_hd__dlygate4sd3_1
*CAP
1 *1025:A1 8.88068e-05
2 *1303:X 8.88068e-05
3 *1277:RESET_B *1025:A1 0.000179656
4 *1343:A *1025:A1 0.00027438
5 *277:24 *1025:A1 0
*RES
1 *1303:X *1025:A1 31.0643 
*END

*D_NET *348 0.00447744
*CONN
*I *1024:A0 I *D sky130_fd_sc_hd__mux2_1
*I *1322:X O *D sky130_fd_sc_hd__clkbuf_1
*CAP
1 *1024:A0 0
2 *1322:X 0.00110215
3 *348:14 0.00110215
4 *1064:S *348:14 0
5 *1214:A *348:14 0.000820959
6 *1214:B *348:14 0.000293657
7 *1259:RESET_B *348:14 0.000179656
8 *1343:A *348:14 0
9 *136:42 *348:14 0.000272665
10 *250:146 *348:14 0.000706207
11 *288:18 *348:14 0
12 *313:41 *348:14 0
13 *337:12 *348:14 0
*RES
1 *1322:X *348:14 47.1214 
2 *348:14 *1024:A0 9.3 
*END

*D_NET *349 0.000509731
*CONN
*I *1017:A1 I *D sky130_fd_sc_hd__mux2_1
*I *1304:X O *D sky130_fd_sc_hd__dlygate4sd3_1
*CAP
1 *1017:A1 0.000206037
2 *1304:X 0.000206037
3 *1017:S *1017:A1 1.92905e-05
4 *1346:A *1017:A1 7.83659e-05
*RES
1 *1304:X *1017:A1 30.4036 
*END

*D_NET *350 0.000539894
*CONN
*I *1062:A0 I *D sky130_fd_sc_hd__mux2_1
*I *1305:X O *D sky130_fd_sc_hd__dlygate4sd3_1
*CAP
1 *1062:A0 0.000184272
2 *1305:X 0.000184272
3 *1340:A *1062:A0 3.18676e-05
4 *300:16 *1062:A0 0.000139482
*RES
1 *1305:X *1062:A0 22.4214 
*END

*D_NET *351 0.00140268
*CONN
*I *1154:A1 I *D sky130_fd_sc_hd__a31o_1
*I *1306:X O *D sky130_fd_sc_hd__dlygate4sd3_1
*CAP
1 *1154:A1 0.000406551
2 *1306:X 0.000406551
3 *1154:A1 *354:59 0
4 *1153:A2 *1154:A1 0.00018553
5 *1154:A3 *1154:A1 0.000103116
6 *1154:B1 *1154:A1 0.000127439
7 *187:10 *1154:A1 7.252e-05
8 *187:14 *1154:A1 6.42242e-05
9 *305:16 *1154:A1 3.67548e-05
10 *305:28 *1154:A1 0
*RES
1 *1306:X *1154:A1 35.8679 
*END

*D_NET *352 0.0113687
*CONN
*I *1020:A0 I *D sky130_fd_sc_hd__mux2_1
*I *1323:X O *D sky130_fd_sc_hd__buf_1
*CAP
1 *1020:A0 0.00223617
2 *1323:X 0.0014343
3 *352:12 0.00367046
4 *1020:A0 *354:80 0.000136975
5 *1020:A0 *361:25 7.84241e-05
6 *1021:A0 *1020:A0 3.4879e-05
7 *1127:A1 *352:12 0.000105463
8 *1127:A2 *352:12 2.89114e-05
9 *1127:B1 *352:12 3.14078e-05
10 *1127:B2 *352:12 0.000139913
11 *1128:A1 *352:12 9.77414e-05
12 *1144:A *352:12 2.89016e-05
13 *1158:A3 *1020:A0 0.000493423
14 *1158:B1 *1020:A0 0.000191423
15 *1171:A1 *352:12 0.000336399
16 *1171:S *352:12 9.71197e-05
17 *1237:D *1020:A0 5.17614e-05
18 *1245:CLK *352:12 9.60939e-05
19 *1288:A *352:12 4.53295e-05
20 *1292:A *1020:A0 0.000306317
21 *154:96 *1020:A0 0.000271339
22 *203:18 *352:12 0
23 *227:12 *352:12 5.52302e-05
24 *267:21 *352:12 0.000892907
25 *267:23 *352:12 0.000170438
26 *303:6 *1020:A0 0.000122091
27 *303:31 *1020:A0 0.00021529
*RES
1 *1323:X *352:12 47.7821 
2 *352:12 *1020:A0 46.5857 
*END

*D_NET *353 0.000529944
*CONN
*I *1016:A0 I *D sky130_fd_sc_hd__mux2_1
*I *1324:X O *D sky130_fd_sc_hd__clkbuf_1
*CAP
1 *1016:A0 0.000176349
2 *1324:X 0.000176349
3 *1324:A *1016:A0 2.56694e-05
4 *1346:A *1016:A0 0.000138322
5 *136:97 *1016:A0 1.32552e-05
*RES
1 *1324:X *1016:A0 30.4036 
*END

*D_NET *354 0.0129574
*CONN
*I *1158:A1 I *D sky130_fd_sc_hd__a31o_1
*I *1056:A I *D sky130_fd_sc_hd__inv_2
*I *1180:A I *D sky130_fd_sc_hd__or2_1
*I *1051:A1 I *D sky130_fd_sc_hd__a211o_1
*I *1160:A2 I *D sky130_fd_sc_hd__o32a_1
*I *1306:A I *D sky130_fd_sc_hd__dlygate4sd3_1
*I *1264:Q O *D sky130_fd_sc_hd__dfrtp_4
*CAP
1 *1158:A1 0
2 *1056:A 5.45155e-05
3 *1180:A 1.66503e-05
4 *1051:A1 4.92905e-05
5 *1160:A2 0.000886339
6 *1306:A 4.26984e-05
7 *1264:Q 0.000327615
8 *354:80 0.000903562
9 *354:59 0.00158902
10 *354:25 0.0015471
11 *354:21 0.00141343
12 *354:10 0.000448941
13 *1160:A2 *1148:A 2.59355e-05
14 *1160:A2 *1160:A1 0.000647649
15 *1160:A2 *1299:A 4.63862e-05
16 *1160:A2 *355:10 9.91086e-05
17 *1180:A *361:12 1.40415e-05
18 *354:80 *1167:A1 0
19 *354:80 *361:12 7.6644e-05
20 *1020:A0 *354:80 0.000136975
21 *1049:B *354:25 0.000137983
22 *1051:B1 *1051:A1 5.52238e-05
23 *1051:B1 *1160:A2 0.000208154
24 *1051:B1 *354:25 5.33005e-05
25 *1091:A2 *354:10 2.89016e-05
26 *1153:A1 *354:25 1.97865e-05
27 *1154:A1 *354:59 0
28 *1154:A3 *354:25 5.19842e-06
29 *1156:C1 *354:25 0.000146732
30 *1157:A1 *354:59 8.00806e-05
31 *1158:A3 *1056:A 0.000185541
32 *1158:B1 *1056:A 5.52238e-05
33 *1158:B1 *354:80 0.000664215
34 *1159:A2 *354:80 0
35 *1160:A3 *1160:A2 3.64936e-05
36 *1160:B2 *1160:A2 5.52238e-05
37 *1164:A2 *1160:A2 1.21258e-05
38 *1164:B1 *1160:A2 0
39 *1165:A1_N *1160:A2 0
40 *1180:B *354:59 0.000315187
41 *1266:RESET_B *1160:A2 0.000414748
42 *1282:A *1160:A2 9.22164e-05
43 *1349:A *354:10 4.63862e-05
44 *132:20 *1180:A 5.52302e-05
45 *154:77 *1160:A2 2.40354e-05
46 *154:96 *1160:A2 6.97409e-05
47 *155:96 *1051:A1 5.1588e-05
48 *155:125 *354:80 7.90803e-05
49 *156:14 *354:10 0.000359846
50 *156:60 *1051:A1 2.89016e-05
51 *156:60 *354:25 5.74499e-06
52 *159:38 *1160:A2 0.000352565
53 *159:71 *354:25 5.86159e-05
54 *159:77 *354:10 0.000128154
55 *159:77 *354:21 0.000151333
56 *159:77 *354:59 5.83304e-05
57 *187:10 *354:59 0
58 *187:14 *354:10 0
59 *187:14 *354:21 0
60 *187:14 *354:59 0
61 *193:50 *354:59 0
62 *193:50 *354:80 0
63 *261:8 *1051:A1 2.20608e-05
64 *266:61 *354:10 5.33005e-05
65 *305:16 *354:59 0
66 *310:10 *354:59 0.000140361
67 *310:12 *354:59 0.000379863
*RES
1 *1264:Q *354:10 21.7464 
2 *354:10 *1306:A 14.3357 
3 *354:10 *354:21 1.94643 
4 *354:21 *354:25 12.4286 
5 *354:25 *1160:A2 37.7643 
6 *354:25 *1051:A1 19.5679 
7 *354:21 *354:59 15.6607 
8 *354:59 *1180:A 14.3357 
9 *354:59 *354:80 25.9464 
10 *354:80 *1056:A 11.0679 
11 *354:80 *1158:A1 9.3 
*END

*D_NET *355 0.008846
*CONN
*I *1299:A I *D sky130_fd_sc_hd__dlygate4sd3_1
*I *1149:A0 I *D sky130_fd_sc_hd__mux2_1
*I *1182:A I *D sky130_fd_sc_hd__or2_1
*I *1159:A1 I *D sky130_fd_sc_hd__a41o_1
*I *1160:A1 I *D sky130_fd_sc_hd__o32a_1
*I *1266:Q O *D sky130_fd_sc_hd__dfrtp_1
*CAP
1 *1299:A 0.000100592
2 *1149:A0 0.000211237
3 *1182:A 0
4 *1159:A1 5.66766e-05
5 *1160:A1 0.000609041
6 *1266:Q 7.40396e-05
7 *355:48 0.00139939
8 *355:25 0.00178726
9 *355:10 0.00121596
10 *355:8 0.000239118
11 *1057:B1 *1299:A 0.000247057
12 *1057:B1 *355:10 4.56594e-05
13 *1057:B1 *355:25 0.000304877
14 *1149:A1 *1149:A0 0.000227532
15 *1159:A2 *355:25 4.96435e-05
16 *1159:A4 *355:25 0.00012452
17 *1159:A4 *355:48 2.48326e-05
18 *1159:B1 *1159:A1 5.46824e-05
19 *1160:A2 *1160:A1 0.000647649
20 *1160:A2 *1299:A 4.63862e-05
21 *1160:A2 *355:10 9.91086e-05
22 *1160:A3 *1160:A1 1.09427e-05
23 *1161:A *1160:A1 1.8461e-05
24 *1183:A *355:48 9.9322e-05
25 *1190:A *355:48 0.000404802
26 *1265:SET_B *355:48 0
27 *1266:RESET_B *1299:A 0.000150611
28 *1269:D *355:48 3.92854e-05
29 *1270:RESET_B *355:25 0.00017309
30 *1282:A *355:25 0
31 *1312:A *355:48 0.000320031
32 *134:14 *355:48 0
33 *154:96 *355:25 0
34 *193:14 *355:8 5.17614e-05
35 *267:73 *1149:A0 1.24368e-05
*RES
1 *1266:Q *355:8 14.7464 
2 *355:8 *355:10 1.33929 
3 *355:10 *1160:A1 22.3714 
4 *355:10 *355:25 12.2679 
5 *355:25 *1159:A1 14.9071 
6 *355:25 *355:48 28.9464 
7 *355:48 *1182:A 9.3 
8 *355:48 *1149:A0 13.5679 
9 *355:8 *1299:A 17.4964 
*END

*D_NET *356 0.00294937
*CONN
*I *1012:A I *D sky130_fd_sc_hd__nand2_4
*I *1156:A1 I *D sky130_fd_sc_hd__o211a_1
*I *1088:A1 I *D sky130_fd_sc_hd__mux2_1
*I *1253:Q O *D sky130_fd_sc_hd__dfrtp_1
*CAP
1 *1012:A 0.000145091
2 *1156:A1 0.000134774
3 *1088:A1 2.63024e-05
4 *1253:Q 0
5 *356:10 0.000986801
6 *356:4 0.000970816
7 *1012:A *1045:A2 7.83587e-05
8 *1072:A1 *1088:A1 2.14658e-05
9 *1072:A1 *356:10 8.32236e-05
10 *1088:S *1088:A1 9.71197e-05
11 *1088:S *356:10 8.17274e-05
12 *1156:A2 *1156:A1 5.7661e-06
13 *1157:B1 *1156:A1 0.000125724
14 *1253:D *356:10 2.72967e-05
15 *1276:D *1012:A 0
16 *138:20 *1012:A 6.20656e-05
17 *159:71 *1156:A1 9.7049e-06
18 *293:118 *1088:A1 2.89114e-05
19 *310:12 *1156:A1 6.42242e-05
*RES
1 *1253:Q *356:4 9.3 
2 *356:4 *356:10 10.4286 
3 *356:10 *1088:A1 10.2464 
4 *356:10 *1156:A1 21.5143 
5 *356:4 *1012:A 21.4429 
*END

*D_NET *357 0.00857762
*CONN
*I *1093:A I *D sky130_fd_sc_hd__or3_2
*I *1148:A I *D sky130_fd_sc_hd__nand2_1
*I *1050:A I *D sky130_fd_sc_hd__inv_2
*I *1046:A I *D sky130_fd_sc_hd__clkbuf_4
*I *1075:A1 I *D sky130_fd_sc_hd__a32o_1
*I *1084:B I *D sky130_fd_sc_hd__nand2_1
*I *1082:A1 I *D sky130_fd_sc_hd__a31o_1
*I *1059:A I *D sky130_fd_sc_hd__nor3b_2
*I *1268:Q O *D sky130_fd_sc_hd__dfstp_2
*CAP
1 *1093:A 0
2 *1148:A 0.000231822
3 *1050:A 1.83384e-05
4 *1046:A 0
5 *1075:A1 0.000506821
6 *1084:B 2.97733e-05
7 *1082:A1 0.000136039
8 *1059:A 5.88924e-05
9 *1268:Q 8.90895e-05
10 *357:88 0.000356172
11 *357:77 0.00044888
12 *357:44 0.000536594
13 *357:31 0.000237422
14 *357:25 0.000305948
15 *357:19 0.000670457
16 *357:6 0.000307682
17 *1059:A *1110:B1 0
18 *357:19 *359:40 2.59355e-05
19 *357:25 *359:40 5.66157e-05
20 *357:77 *1093:B 2.09136e-05
21 *357:77 *359:30 5.54655e-05
22 *357:77 *359:40 0.000504407
23 *1084:A *1075:A1 1.04232e-05
24 *1084:A *1082:A1 9.25014e-06
25 *1084:A *357:31 5.66157e-05
26 *1085:A1 *1082:A1 2.19216e-05
27 *1091:A2 *1075:A1 0.000912308
28 *1160:A2 *1148:A 2.59355e-05
29 *1164:B1 *1148:A 0.000387425
30 *1165:A1_N *357:88 0.000136958
31 *1268:D *1059:A 5.52302e-05
32 *1268:D *357:6 0.0001399
33 *1282:A *1148:A 0
34 *1325:A *1075:A1 0.00031641
35 *154:77 *1148:A 5.33005e-05
36 *155:6 *357:25 2.17647e-05
37 *157:27 *1075:A1 0
38 *165:8 *357:25 3.2534e-05
39 *165:8 *357:31 3.79104e-05
40 *165:28 *1082:A1 9.76181e-05
41 *181:6 *1075:A1 9.60875e-05
42 *186:22 *357:77 9.56233e-05
43 *186:22 *357:88 0.000118262
44 *191:6 *357:77 9.99853e-05
45 *191:6 *357:88 0.00016729
46 *201:14 *357:77 2.82057e-05
47 *250:75 *1059:A 5.92418e-05
48 *250:75 *357:19 9.9305e-05
49 *251:55 *1082:A1 0.000196785
50 *251:55 *357:25 0.00018372
51 *251:55 *357:31 0.000340001
52 *274:44 *1075:A1 0
53 *293:46 *357:25 0
54 *293:67 *1075:A1 1.56e-05
55 *293:67 *1084:B 2.59355e-05
56 *293:86 *357:25 3.07455e-05
57 *293:86 *357:31 0.000108058
*RES
1 *1268:Q *357:6 11.0679 
2 *357:6 *1059:A 10.9786 
3 *357:6 *357:19 7.5 
4 *357:19 *357:25 8.82143 
5 *357:25 *357:31 8.60714 
6 *357:31 *1082:A1 16.8893 
7 *357:31 *357:44 4.5 
8 *357:44 *1084:B 9.83571 
9 *357:44 *1075:A1 30.6571 
10 *357:25 *1046:A 9.3 
11 *357:19 *357:77 13.0714 
12 *357:77 *1050:A 9.72857 
13 *357:77 *357:88 3.42857 
14 *357:88 *1148:A 23.8179 
15 *357:88 *1093:A 9.3 
*END

*D_NET *358 0.00246795
*CONN
*I *1152:A2 I *D sky130_fd_sc_hd__a31o_1
*I *1166:B I *D sky130_fd_sc_hd__nor2_1
*I *1311:A I *D sky130_fd_sc_hd__dlygate4sd3_1
*I *1269:Q O *D sky130_fd_sc_hd__dfrtp_1
*CAP
1 *1152:A2 0.000251953
2 *1166:B 0
3 *1311:A 2.23854e-05
4 *1269:Q 0.000199268
5 *358:25 0.000575551
6 *358:8 0.000545251
7 *1152:A2 *1166:A 0.00040376
8 *358:25 *1167:A1 6.97972e-05
9 *1152:A3 *1152:A2 5.52302e-05
10 *1167:A2 *1152:A2 3.1367e-05
11 *1224:A *1152:A2 0
12 *1272:RESET_B *358:25 9.3111e-05
13 *1301:A *1152:A2 1.38323e-05
14 *241:22 *358:8 0.000137019
15 *241:22 *358:25 6.94273e-05
*RES
1 *1269:Q *358:8 13.1393 
2 *358:8 *1311:A 9.72857 
3 *358:8 *358:25 14.8929 
4 *358:25 *1166:B 9.3 
5 *358:25 *1152:A2 15.1929 
*END

*D_NET *359 0.0154995
*CONN
*I *1167:A1 I *D sky130_fd_sc_hd__o21a_1
*I *1045:B1 I *D sky130_fd_sc_hd__o211a_1
*I *1012:B I *D sky130_fd_sc_hd__nand2_4
*I *1164:B2 I *D sky130_fd_sc_hd__a22o_1
*I *1098:A I *D sky130_fd_sc_hd__inv_2
*I *1093:B I *D sky130_fd_sc_hd__or3_2
*I *1059:C_N I *D sky130_fd_sc_hd__nor3b_2
*I *1110:B1 I *D sky130_fd_sc_hd__o311a_1
*I *1270:Q O *D sky130_fd_sc_hd__dfrtp_4
*CAP
1 *1167:A1 0.000764356
2 *1045:B1 3.72704e-05
3 *1012:B 0.000207322
4 *1164:B2 0
5 *1098:A 0
6 *1093:B 0.000248601
7 *1059:C_N 0
8 *1110:B1 9.65021e-05
9 *1270:Q 0
10 *359:91 0.00167261
11 *359:81 0.00243275
12 *359:40 0.000392021
13 *359:30 0.000588396
14 *359:26 0.000531155
15 *359:16 0.00167899
16 *359:4 0.00143249
17 *1012:B *1045:A2 0.000212831
18 *359:40 *1059:B 0
19 *359:91 *1045:A2 4.46186e-06
20 *1057:B1 *359:16 0
21 *1059:A *1110:B1 0
22 *1100:A *359:26 3.19595e-05
23 *1110:C1 *1110:B1 5.65955e-05
24 *1165:A1_N *1093:B 4.18895e-05
25 *1167:A2 *1167:A1 0.00014777
26 *1167:B1 *1167:A1 0.000143652
27 *1175:A0 *359:16 4.49922e-05
28 *1180:B *1167:A1 0
29 *1231:A *359:91 0
30 *1238:RESET_B *359:91 4.31097e-05
31 *1265:D *1167:A1 6.91214e-05
32 *1267:D *359:91 0.0001098
33 *1272:CLK *1167:A1 0.000164554
34 *1272:CLK *359:91 0.00022117
35 *1272:RESET_B *1167:A1 0.000522052
36 *1293:A *359:91 6.62983e-05
37 *132:10 *359:81 9.80173e-05
38 *132:128 *1167:A1 0.00014384
39 *133:90 *359:81 0.000229456
40 *133:101 *359:81 9.60875e-05
41 *134:14 *359:81 0.00014285
42 *155:125 *359:16 0.000101545
43 *186:22 *359:40 8.25843e-06
44 *191:6 *1093:B 0.000268184
45 *192:16 *359:16 2.49484e-05
46 *192:16 *359:26 0.000234359
47 *192:48 *359:16 4.15914e-05
48 *193:33 *359:91 0.000109634
49 *201:14 *359:26 0.000228483
50 *201:14 *359:30 1.00375e-05
51 *201:14 *359:40 0.000299274
52 *246:24 *1167:A1 9.25014e-06
53 *246:24 *359:91 0.000101545
54 *247:22 *359:81 0.000165356
55 *250:75 *1110:B1 0.000238937
56 *250:75 *359:40 2.87485e-05
57 *257:8 *359:16 5.01883e-05
58 *261:42 *359:91 0
59 *305:16 *359:91 0.00017309
60 *354:80 *1167:A1 0
61 *357:19 *359:40 2.59355e-05
62 *357:25 *359:40 5.66157e-05
63 *357:77 *1093:B 2.09136e-05
64 *357:77 *359:30 5.54655e-05
65 *357:77 *359:40 0.000504407
66 *358:25 *1167:A1 6.97972e-05
*RES
1 *1270:Q *359:4 9.3 
2 *359:4 *359:16 28.5179 
3 *359:16 *359:26 11.1607 
4 *359:26 *359:30 5.53571 
5 *359:30 *359:40 17.2857 
6 *359:40 *1110:B1 12.3357 
7 *359:40 *1059:C_N 9.3 
8 *359:30 *1093:B 12.7107 
9 *359:26 *1098:A 13.8 
10 *359:16 *1164:B2 13.8 
11 *359:4 *359:81 10.375 
12 *359:81 *359:91 30.4107 
13 *359:91 *1012:B 18.7821 
14 *359:91 *1045:B1 14.3357 
15 *359:81 *1167:A1 32.3714 
*END

*D_NET *360 0.00462492
*CONN
*I *1059:B I *D sky130_fd_sc_hd__nor3b_2
*I *1092:A I *D sky130_fd_sc_hd__clkbuf_4
*I *1104:A2 I *D sky130_fd_sc_hd__a21bo_1
*I *1103:A I *D sky130_fd_sc_hd__or2b_1
*I *1271:Q O *D sky130_fd_sc_hd__dfrtp_1
*CAP
1 *1059:B 0.000541753
2 *1092:A 0
3 *1104:A2 0.000238248
4 *1103:A 0.000285703
5 *1271:Q 0.000201989
6 *360:18 0.000839995
7 *360:12 0.000514959
8 *360:10 0.000942657
9 *1103:B_N *1103:A 2.27416e-05
10 *1196:A *1103:A 1.72894e-05
11 *1198:B *360:18 2.24646e-05
12 *1199:A *360:18 9.41642e-05
13 *1199:B *360:18 5.33005e-05
14 *1268:D *1059:B 7.60306e-05
15 *131:14 *360:10 0
16 *131:14 *360:18 0.000190917
17 *131:61 *360:10 0.000134758
18 *131:76 *360:10 6.39901e-05
19 *186:10 *360:10 0
20 *186:10 *360:12 1.60719e-05
21 *186:10 *360:18 1.15281e-05
22 *186:40 *360:10 0
23 *201:14 *1059:B 0
24 *249:59 *1103:A 0.000151333
25 *249:59 *360:18 0.000126439
26 *293:46 *1059:B 7.85886e-05
27 *359:40 *1059:B 0
*RES
1 *1271:Q *360:10 22.9786 
2 *360:10 *360:12 3 
3 *360:12 *360:18 11.0893 
4 *360:18 *1103:A 18.3357 
5 *360:18 *1104:A2 17.6214 
6 *360:12 *1092:A 9.3 
7 *360:10 *1059:B 27.2107 
*END

*D_NET *361 0.00444456
*CONN
*I *1151:A I *D sky130_fd_sc_hd__inv_2
*I *1166:A I *D sky130_fd_sc_hd__nor2_1
*I *1155:A1 I *D sky130_fd_sc_hd__a21o_1
*I *1291:A I *D sky130_fd_sc_hd__dlygate4sd3_1
*I *1272:Q O *D sky130_fd_sc_hd__dfrtp_1
*CAP
1 *1151:A 0.000385657
2 *1166:A 0.000291356
3 *1155:A1 3.03519e-05
4 *1291:A 0
5 *1272:Q 0.000203989
6 *361:40 0.000873865
7 *361:25 0.00049866
8 *361:12 0.000475444
9 *1020:A0 *361:25 7.84241e-05
10 *1152:A2 *1166:A 0.00040376
11 *1152:A3 *1155:A1 3.63587e-05
12 *1152:A3 *361:25 2.94103e-05
13 *1152:A3 *361:40 0.000172528
14 *1152:B1 *1151:A 0.0001226
15 *1155:A2 *1155:A1 2.7547e-05
16 *1155:B1 *1155:A1 1.97695e-05
17 *1180:A *361:12 1.40415e-05
18 *1284:A *361:25 2.05938e-05
19 *1285:A *1166:A 5.41794e-05
20 *1285:A *361:40 3.69697e-05
21 *1301:A *1151:A 0.000139913
22 *1301:A *1166:A 0.000193207
23 *132:20 *361:12 6.90118e-06
24 *193:50 *361:12 5.26184e-05
25 *268:6 *1155:A1 1.24368e-05
26 *268:10 *361:25 0.00012401
27 *268:10 *361:40 2.24646e-05
28 *268:56 *1155:A1 4.08637e-05
29 *354:80 *361:12 7.6644e-05
*RES
1 *1272:Q *361:12 21.6036 
2 *361:12 *1291:A 9.3 
3 *361:12 *361:25 9.05357 
4 *361:25 *1155:A1 14.7643 
5 *361:25 *361:40 8.875 
6 *361:40 *1166:A 24.2107 
7 *361:40 *1151:A 14.675 
*END

*D_NET *362 0.00194527
*CONN
*I *1310:A I *D sky130_fd_sc_hd__dlygate4sd3_1
*I *1045:A2 I *D sky130_fd_sc_hd__o211a_1
*I *1252:Q O *D sky130_fd_sc_hd__dfrtp_1
*CAP
1 *1310:A 0
2 *1045:A2 0.000578409
3 *1252:Q 0.000155991
4 *362:12 0.0007344
5 *1012:A *1045:A2 7.83587e-05
6 *1012:B *1045:A2 0.000212831
7 *1072:A1 *362:12 5.71472e-05
8 *1231:A *1045:A2 0
9 *1276:CLK *1045:A2 0
10 *1276:D *1045:A2 0
11 *136:42 *1045:A2 0.000123673
12 *359:91 *1045:A2 4.46186e-06
*RES
1 *1252:Q *362:12 20.7821 
2 *362:12 *1045:A2 30.0143 
3 *362:12 *1310:A 9.3 
*END
