*SPEF "ieee 1481-1999"
*DESIGN "housekeeping_spi"
*DATE "11:11:11 Fri 11 11, 1111"
*VENDOR "OpenRCX"
*PROGRAM "Parallel Extraction"
*VERSION "1.0"
*DESIGN_FLOW "NAME_SCOPE LOCAL" "PIN_CAP NONE"
*DIVIDER /
*DELIMITER :
*BUS_DELIMITER []
*T_UNIT 1 NS
*C_UNIT 1 PF
*R_UNIT 1 OHM
*L_UNIT 1 HENRY

*NAME_MAP
*1 CSB
*2 SCK
*3 SDI
*4 SDO
*7 idata[0]
*8 idata[1]
*9 idata[2]
*10 idata[3]
*11 idata[4]
*12 idata[5]
*13 idata[6]
*14 idata[7]
*15 oaddr[0]
*16 oaddr[1]
*17 oaddr[2]
*18 oaddr[3]
*19 oaddr[4]
*20 oaddr[5]
*21 oaddr[6]
*22 oaddr[7]
*23 odata[0]
*24 odata[1]
*25 odata[2]
*26 odata[3]
*27 odata[4]
*28 odata[5]
*29 odata[6]
*30 odata[7]
*31 pass_thru_mgmt
*32 pass_thru_mgmt_delay
*33 pass_thru_mgmt_reset
*34 pass_thru_user
*35 pass_thru_user_delay
*36 pass_thru_user_reset
*37 rdstb
*38 reset
*39 sdoenb
*40 wrstb
*41 _000_
*42 _001_
*43 _002_
*44 _003_
*45 _004_
*46 _005_
*47 _006_
*48 _007_
*49 _008_
*50 _009_
*51 _010_
*52 _011_
*53 _012_
*54 _013_
*55 _014_
*56 _015_
*57 _016_
*58 _017_
*59 _018_
*60 _019_
*61 _020_
*62 _021_
*63 _022_
*64 _023_
*65 _024_
*66 _025_
*67 _026_
*68 _027_
*69 _028_
*70 _029_
*71 _030_
*72 _031_
*73 _032_
*74 _033_
*75 _034_
*76 _035_
*77 _037_
*78 _038_
*79 _040_
*80 _041_
*81 _042_
*82 _043_
*83 _044_
*84 _045_
*85 _047_
*86 _049_
*87 _051_
*88 _053_
*89 _055_
*90 _057_
*91 _059_
*92 _061_
*93 _062_
*94 _063_
*95 _064_
*96 _065_
*97 _066_
*98 _067_
*99 _068_
*100 _069_
*101 _070_
*102 _071_
*103 _072_
*104 _073_
*105 _074_
*106 _075_
*107 _076_
*108 _077_
*109 _078_
*110 _079_
*111 _080_
*112 _081_
*113 _082_
*114 _083_
*115 _084_
*116 _085_
*117 _086_
*118 _087_
*119 _088_
*120 _089_
*121 _090_
*122 _091_
*123 _092_
*124 _093_
*125 _094_
*126 _095_
*127 _096_
*128 _097_
*129 _098_
*130 _099_
*131 _100_
*132 _101_
*133 _102_
*134 _103_
*135 _104_
*136 _105_
*137 _106_
*138 _107_
*139 _108_
*140 _109_
*141 _110_
*142 _111_
*143 _112_
*144 _113_
*145 _114_
*146 _115_
*147 _116_
*148 _117_
*149 _118_
*150 _119_
*151 _120_
*152 _121_
*153 _122_
*154 _123_
*155 _124_
*156 _125_
*157 _126_
*158 _127_
*159 _128_
*160 _129_
*161 _130_
*162 _131_
*163 _132_
*164 _133_
*165 _134_
*166 _135_
*167 _136_
*168 _137_
*169 _138_
*170 _139_
*171 _140_
*172 _141_
*173 _142_
*174 _143_
*175 _144_
*176 _145_
*177 _146_
*178 _147_
*179 _148_
*180 _149_
*181 _150_
*182 _151_
*183 _152_
*184 _153_
*185 _154_
*186 _155_
*187 _156_
*188 _157_
*189 _158_
*190 _159_
*191 _160_
*192 _161_
*193 _162_
*194 _163_
*195 _164_
*196 _165_
*197 _166_
*198 _167_
*199 _168_
*200 _169_
*201 _170_
*202 _171_
*203 _172_
*204 _173_
*205 _174_
*206 _175_
*207 _176_
*208 _177_
*209 _178_
*210 _179_
*211 _180_
*212 _181_
*213 _182_
*214 _183_
*215 _184_
*216 _185_
*217 _186_
*218 _187_
*219 _188_
*220 _189_
*221 _190_
*222 _191_
*223 _192_
*224 _193_
*225 _194_
*226 _195_
*227 _196_
*228 _197_
*229 _198_
*230 _199_
*231 _200_
*232 _201_
*233 _202_
*234 _203_
*235 _204_
*236 _205_
*237 _206_
*238 _207_
*239 _208_
*240 _209_
*241 _210_
*242 _211_
*243 _212_
*244 _213_
*245 _214_
*246 _215_
*247 _216_
*248 _217_
*249 _218_
*250 _219_
*251 _220_
*252 _221_
*253 addr\[0\]
*254 addr\[1\]
*255 addr\[2\]
*256 addr\[3\]
*257 addr\[4\]
*258 addr\[5\]
*259 addr\[6\]
*260 addr\[7\]
*261 clknet_0_SCK
*262 clknet_0__221_
*263 clknet_1_0__leaf__221_
*264 clknet_1_1__leaf__221_
*265 clknet_2_0__leaf_SCK
*266 clknet_2_1__leaf_SCK
*267 clknet_2_2__leaf_SCK
*268 clknet_2_3__leaf_SCK
*269 count\[0\]
*270 count\[1\]
*271 count\[2\]
*272 fixed\[0\]
*273 fixed\[1\]
*274 fixed\[2\]
*275 ldata\[0\]
*276 ldata\[1\]
*277 ldata\[2\]
*278 ldata\[3\]
*279 ldata\[4\]
*280 ldata\[5\]
*281 ldata\[6\]
*282 net1
*283 net10
*284 net11
*285 net12
*286 net13
*287 net14
*288 net15
*289 net16
*290 net17
*291 net18
*292 net19
*293 net2
*294 net20
*295 net21
*296 net22
*297 net23
*298 net24
*299 net25
*300 net26
*301 net27
*302 net28
*303 net29
*304 net3
*305 net30
*306 net31
*307 net32
*308 net33
*309 net34
*310 net35
*311 net36
*312 net37
*313 net38
*314 net39
*315 net4
*316 net40
*317 net41
*318 net42
*319 net43
*320 net44
*321 net45
*322 net46
*323 net47
*324 net48
*325 net49
*326 net5
*327 net50
*328 net51
*329 net52
*330 net53
*331 net54
*332 net55
*333 net56
*334 net57
*335 net58
*336 net59
*337 net6
*338 net60
*339 net61
*340 net62
*341 net63
*342 net64
*343 net65
*344 net66
*345 net67
*346 net68
*347 net69
*348 net7
*349 net70
*350 net71
*351 net72
*352 net8
*353 net9
*354 pre_pass_thru_mgmt
*355 pre_pass_thru_user
*356 readmode
*357 state\[0\]
*358 state\[1\]
*359 state\[2\]
*360 state\[3\]
*361 state\[4\]
*362 writemode
*363 FILLER_0_0_104
*364 FILLER_0_0_113
*365 FILLER_0_0_119
*366 FILLER_0_0_126
*367 FILLER_0_0_134
*368 FILLER_0_0_138
*369 FILLER_0_0_156
*370 FILLER_0_0_162
*371 FILLER_0_0_169
*372 FILLER_0_0_174
*373 FILLER_0_0_20
*374 FILLER_0_0_3
*375 FILLER_0_0_38
*376 FILLER_0_0_60
*377 FILLER_0_0_7
*378 FILLER_0_0_72
*379 FILLER_0_0_85
*380 FILLER_0_0_97
*381 FILLER_0_10_109
*382 FILLER_0_10_125
*383 FILLER_0_10_135
*384 FILLER_0_10_139
*385 FILLER_0_10_141
*386 FILLER_0_10_151
*387 FILLER_0_10_163
*388 FILLER_0_10_175
*389 FILLER_0_10_181
*390 FILLER_0_10_29
*391 FILLER_0_10_3
*392 FILLER_0_10_67
*393 FILLER_0_10_83
*394 FILLER_0_10_97
*395 FILLER_0_11_108
*396 FILLER_0_11_121
*397 FILLER_0_11_133
*398 FILLER_0_11_145
*399 FILLER_0_11_15
*400 FILLER_0_11_157
*401 FILLER_0_11_165
*402 FILLER_0_11_169
*403 FILLER_0_11_175
*404 FILLER_0_11_26
*405 FILLER_0_11_3
*406 FILLER_0_11_38
*407 FILLER_0_11_46
*408 FILLER_0_11_50
*409 FILLER_0_11_57
*410 FILLER_0_11_63
*411 FILLER_0_11_84
*412 FILLER_0_11_96
*413 FILLER_0_12_105
*414 FILLER_0_12_11
*415 FILLER_0_12_125
*416 FILLER_0_12_133
*417 FILLER_0_12_138
*418 FILLER_0_12_150
*419 FILLER_0_12_156
*420 FILLER_0_12_160
*421 FILLER_0_12_166
*422 FILLER_0_12_176
*423 FILLER_0_12_23
*424 FILLER_0_12_27
*425 FILLER_0_12_29
*426 FILLER_0_12_41
*427 FILLER_0_12_48
*428 FILLER_0_12_6
*429 FILLER_0_12_60
*430 FILLER_0_12_72
*431 FILLER_0_12_85
*432 FILLER_0_12_93
*433 FILLER_0_13_111
*434 FILLER_0_13_113
*435 FILLER_0_13_146
*436 FILLER_0_13_178
*437 FILLER_0_13_24
*438 FILLER_0_13_3
*439 FILLER_0_13_32
*440 FILLER_0_13_37
*441 FILLER_0_13_49
*442 FILLER_0_13_57
*443 FILLER_0_13_65
*444 FILLER_0_13_73
*445 FILLER_0_13_81
*446 FILLER_0_13_87
*447 FILLER_0_14_10
*448 FILLER_0_14_112
*449 FILLER_0_14_128
*450 FILLER_0_14_152
*451 FILLER_0_14_181
*452 FILLER_0_14_22
*453 FILLER_0_14_3
*454 FILLER_0_14_76
*455 FILLER_0_15_103
*456 FILLER_0_15_111
*457 FILLER_0_15_113
*458 FILLER_0_15_117
*459 FILLER_0_15_126
*460 FILLER_0_15_149
*461 FILLER_0_15_161
*462 FILLER_0_15_166
*463 FILLER_0_15_18
*464 FILLER_0_15_26
*465 FILLER_0_15_3
*466 FILLER_0_15_32
*467 FILLER_0_15_44
*468 FILLER_0_15_60
*469 FILLER_0_15_79
*470 FILLER_0_16_135
*471 FILLER_0_16_161
*472 FILLER_0_16_17
*473 FILLER_0_16_25
*474 FILLER_0_16_29
*475 FILLER_0_16_39
*476 FILLER_0_16_51
*477 FILLER_0_16_61
*478 FILLER_0_16_73
*479 FILLER_0_16_81
*480 FILLER_0_16_88
*481 FILLER_0_16_9
*482 FILLER_0_16_94
*483 FILLER_0_17_116
*484 FILLER_0_17_124
*485 FILLER_0_17_128
*486 FILLER_0_17_140
*487 FILLER_0_17_152
*488 FILLER_0_17_167
*489 FILLER_0_17_169
*490 FILLER_0_17_173
*491 FILLER_0_17_24
*492 FILLER_0_17_3
*493 FILLER_0_17_30
*494 FILLER_0_17_55
*495 FILLER_0_17_57
*496 FILLER_0_17_7
*497 FILLER_0_17_97
*498 FILLER_0_18_123
*499 FILLER_0_18_129
*500 FILLER_0_18_133
*501 FILLER_0_18_139
*502 FILLER_0_18_141
*503 FILLER_0_18_147
*504 FILLER_0_18_151
*505 FILLER_0_18_159
*506 FILLER_0_18_164
*507 FILLER_0_18_173
*508 FILLER_0_18_181
*509 FILLER_0_18_23
*510 FILLER_0_18_27
*511 FILLER_0_18_29
*512 FILLER_0_18_3
*513 FILLER_0_18_41
*514 FILLER_0_18_47
*515 FILLER_0_18_71
*516 FILLER_0_18_83
*517 FILLER_0_18_85
*518 FILLER_0_18_97
*519 FILLER_0_19_110
*520 FILLER_0_19_121
*521 FILLER_0_19_144
*522 FILLER_0_19_152
*523 FILLER_0_19_16
*524 FILLER_0_19_162
*525 FILLER_0_19_169
*526 FILLER_0_19_175
*527 FILLER_0_19_28
*528 FILLER_0_19_3
*529 FILLER_0_19_40
*530 FILLER_0_19_44
*531 FILLER_0_19_48
*532 FILLER_0_19_57
*533 FILLER_0_19_62
*534 FILLER_0_19_7
*535 FILLER_0_19_74
*536 FILLER_0_19_86
*537 FILLER_0_19_90
*538 FILLER_0_19_94
*539 FILLER_0_1_103
*540 FILLER_0_1_111
*541 FILLER_0_1_12
*542 FILLER_0_1_156
*543 FILLER_0_1_167
*544 FILLER_0_1_172
*545 FILLER_0_1_178
*546 FILLER_0_1_24
*547 FILLER_0_1_54
*548 FILLER_0_1_57
*549 FILLER_0_1_65
*550 FILLER_0_1_86
*551 FILLER_0_20_121
*552 FILLER_0_20_137
*553 FILLER_0_20_14
*554 FILLER_0_20_149
*555 FILLER_0_20_181
*556 FILLER_0_20_20
*557 FILLER_0_20_29
*558 FILLER_0_20_37
*559 FILLER_0_20_6
*560 FILLER_0_20_74
*561 FILLER_0_20_82
*562 FILLER_0_20_93
*563 FILLER_0_21_106
*564 FILLER_0_21_11
*565 FILLER_0_21_113
*566 FILLER_0_21_125
*567 FILLER_0_21_148
*568 FILLER_0_21_163
*569 FILLER_0_21_167
*570 FILLER_0_21_180
*571 FILLER_0_21_28
*572 FILLER_0_21_3
*573 FILLER_0_21_38
*574 FILLER_0_21_55
*575 FILLER_0_21_61
*576 FILLER_0_21_74
*577 FILLER_0_22_108
*578 FILLER_0_22_114
*579 FILLER_0_22_120
*580 FILLER_0_22_139
*581 FILLER_0_22_141
*582 FILLER_0_22_153
*583 FILLER_0_22_16
*584 FILLER_0_22_165
*585 FILLER_0_22_177
*586 FILLER_0_22_181
*587 FILLER_0_22_29
*588 FILLER_0_22_3
*589 FILLER_0_22_41
*590 FILLER_0_22_49
*591 FILLER_0_22_53
*592 FILLER_0_22_65
*593 FILLER_0_22_77
*594 FILLER_0_22_83
*595 FILLER_0_22_96
*596 FILLER_0_23_10
*597 FILLER_0_23_111
*598 FILLER_0_23_119
*599 FILLER_0_23_125
*600 FILLER_0_23_154
*601 FILLER_0_23_166
*602 FILLER_0_23_169
*603 FILLER_0_23_180
*604 FILLER_0_23_22
*605 FILLER_0_23_34
*606 FILLER_0_23_46
*607 FILLER_0_23_54
*608 FILLER_0_23_57
*609 FILLER_0_23_75
*610 FILLER_0_23_87
*611 FILLER_0_23_99
*612 FILLER_0_24_121
*613 FILLER_0_24_129
*614 FILLER_0_24_133
*615 FILLER_0_24_139
*616 FILLER_0_24_141
*617 FILLER_0_24_153
*618 FILLER_0_24_160
*619 FILLER_0_24_172
*620 FILLER_0_24_178
*621 FILLER_0_24_29
*622 FILLER_0_24_3
*623 FILLER_0_24_35
*624 FILLER_0_24_39
*625 FILLER_0_24_62
*626 FILLER_0_24_77
*627 FILLER_0_24_83
*628 FILLER_0_24_88
*629 FILLER_0_24_96
*630 FILLER_0_25_113
*631 FILLER_0_25_119
*632 FILLER_0_25_143
*633 FILLER_0_25_147
*634 FILLER_0_25_16
*635 FILLER_0_25_178
*636 FILLER_0_25_27
*637 FILLER_0_25_3
*638 FILLER_0_25_39
*639 FILLER_0_25_54
*640 FILLER_0_25_57
*641 FILLER_0_25_69
*642 FILLER_0_26_10
*643 FILLER_0_26_109
*644 FILLER_0_26_128
*645 FILLER_0_26_141
*646 FILLER_0_26_145
*647 FILLER_0_26_152
*648 FILLER_0_26_164
*649 FILLER_0_26_170
*650 FILLER_0_26_22
*651 FILLER_0_26_3
*652 FILLER_0_26_38
*653 FILLER_0_26_50
*654 FILLER_0_26_62
*655 FILLER_0_26_66
*656 FILLER_0_26_70
*657 FILLER_0_26_82
*658 FILLER_0_26_85
*659 FILLER_0_26_97
*660 FILLER_0_27_105
*661 FILLER_0_27_111
*662 FILLER_0_27_113
*663 FILLER_0_27_125
*664 FILLER_0_27_137
*665 FILLER_0_27_149
*666 FILLER_0_27_15
*667 FILLER_0_27_161
*668 FILLER_0_27_167
*669 FILLER_0_27_27
*670 FILLER_0_27_3
*671 FILLER_0_27_39
*672 FILLER_0_27_51
*673 FILLER_0_27_55
*674 FILLER_0_27_60
*675 FILLER_0_27_72
*676 FILLER_0_27_84
*677 FILLER_0_27_96
*678 FILLER_0_28_121
*679 FILLER_0_28_125
*680 FILLER_0_28_136
*681 FILLER_0_28_15
*682 FILLER_0_28_152
*683 FILLER_0_28_156
*684 FILLER_0_28_180
*685 FILLER_0_28_27
*686 FILLER_0_28_3
*687 FILLER_0_28_32
*688 FILLER_0_28_41
*689 FILLER_0_28_77
*690 FILLER_0_28_83
*691 FILLER_0_28_88
*692 FILLER_0_29_101
*693 FILLER_0_29_109
*694 FILLER_0_29_15
*695 FILLER_0_29_151
*696 FILLER_0_29_177
*697 FILLER_0_29_181
*698 FILLER_0_29_23
*699 FILLER_0_29_49
*700 FILLER_0_29_55
*701 FILLER_0_29_57
*702 FILLER_0_29_91
*703 FILLER_0_29_97
*704 FILLER_0_2_108
*705 FILLER_0_2_116
*706 FILLER_0_2_124
*707 FILLER_0_2_136
*708 FILLER_0_2_144
*709 FILLER_0_2_15
*710 FILLER_0_2_156
*711 FILLER_0_2_3
*712 FILLER_0_2_44
*713 FILLER_0_2_56
*714 FILLER_0_2_66
*715 FILLER_0_2_78
*716 FILLER_0_2_96
*717 FILLER_0_30_104
*718 FILLER_0_30_113
*719 FILLER_0_30_123
*720 FILLER_0_30_135
*721 FILLER_0_30_139
*722 FILLER_0_30_141
*723 FILLER_0_30_149
*724 FILLER_0_30_16
*725 FILLER_0_30_165
*726 FILLER_0_30_169
*727 FILLER_0_30_29
*728 FILLER_0_30_3
*729 FILLER_0_30_37
*730 FILLER_0_30_41
*731 FILLER_0_30_53
*732 FILLER_0_30_57
*733 FILLER_0_30_65
*734 FILLER_0_30_77
*735 FILLER_0_30_83
*736 FILLER_0_30_91
*737 FILLER_0_30_99
*738 FILLER_0_3_101
*739 FILLER_0_3_109
*740 FILLER_0_3_136
*741 FILLER_0_3_148
*742 FILLER_0_3_15
*743 FILLER_0_3_160
*744 FILLER_0_3_169
*745 FILLER_0_3_181
*746 FILLER_0_3_3
*747 FILLER_0_3_48
*748 FILLER_0_3_77
*749 FILLER_0_3_89
*750 FILLER_0_4_109
*751 FILLER_0_4_121
*752 FILLER_0_4_129
*753 FILLER_0_4_134
*754 FILLER_0_4_141
*755 FILLER_0_4_150
*756 FILLER_0_4_158
*757 FILLER_0_4_181
*758 FILLER_0_4_21
*759 FILLER_0_4_27
*760 FILLER_0_4_29
*761 FILLER_0_4_42
*762 FILLER_0_4_54
*763 FILLER_0_4_65
*764 FILLER_0_4_77
*765 FILLER_0_4_83
*766 FILLER_0_4_85
*767 FILLER_0_4_9
*768 FILLER_0_4_97
*769 FILLER_0_5_106
*770 FILLER_0_5_15
*771 FILLER_0_5_160
*772 FILLER_0_5_175
*773 FILLER_0_5_181
*774 FILLER_0_5_27
*775 FILLER_0_5_3
*776 FILLER_0_5_50
*777 FILLER_0_5_64
*778 FILLER_0_5_76
*779 FILLER_0_5_84
*780 FILLER_0_5_92
*781 FILLER_0_6_121
*782 FILLER_0_6_133
*783 FILLER_0_6_139
*784 FILLER_0_6_141
*785 FILLER_0_6_15
*786 FILLER_0_6_158
*787 FILLER_0_6_168
*788 FILLER_0_6_180
*789 FILLER_0_6_27
*790 FILLER_0_6_29
*791 FILLER_0_6_3
*792 FILLER_0_6_41
*793 FILLER_0_6_65
*794 FILLER_0_6_75
*795 FILLER_0_6_83
*796 FILLER_0_7_100
*797 FILLER_0_7_104
*798 FILLER_0_7_113
*799 FILLER_0_7_130
*800 FILLER_0_7_142
*801 FILLER_0_7_15
*802 FILLER_0_7_154
*803 FILLER_0_7_166
*804 FILLER_0_7_169
*805 FILLER_0_7_177
*806 FILLER_0_7_27
*807 FILLER_0_7_3
*808 FILLER_0_7_38
*809 FILLER_0_7_50
*810 FILLER_0_7_74
*811 FILLER_0_7_88
*812 FILLER_0_8_131
*813 FILLER_0_8_141
*814 FILLER_0_8_153
*815 FILLER_0_8_175
*816 FILLER_0_8_181
*817 FILLER_0_8_29
*818 FILLER_0_8_3
*819 FILLER_0_8_41
*820 FILLER_0_8_53
*821 FILLER_0_8_62
*822 FILLER_0_8_74
*823 FILLER_0_8_82
*824 FILLER_0_8_85
*825 FILLER_0_9_10
*826 FILLER_0_9_102
*827 FILLER_0_9_111
*828 FILLER_0_9_113
*829 FILLER_0_9_121
*830 FILLER_0_9_130
*831 FILLER_0_9_163
*832 FILLER_0_9_167
*833 FILLER_0_9_169
*834 FILLER_0_9_181
*835 FILLER_0_9_27
*836 FILLER_0_9_3
*837 FILLER_0_9_39
*838 FILLER_0_9_48
*839 FILLER_0_9_57
*840 FILLER_0_9_67
*841 FILLER_0_9_79
*842 FILLER_0_9_91
*843 PHY_0
*844 PHY_1
*845 PHY_10
*846 PHY_11
*847 PHY_12
*848 PHY_13
*849 PHY_14
*850 PHY_15
*851 PHY_16
*852 PHY_17
*853 PHY_18
*854 PHY_19
*855 PHY_2
*856 PHY_20
*857 PHY_21
*858 PHY_22
*859 PHY_23
*860 PHY_24
*861 PHY_25
*862 PHY_26
*863 PHY_27
*864 PHY_28
*865 PHY_29
*866 PHY_3
*867 PHY_30
*868 PHY_31
*869 PHY_32
*870 PHY_33
*871 PHY_34
*872 PHY_35
*873 PHY_36
*874 PHY_37
*875 PHY_38
*876 PHY_39
*877 PHY_4
*878 PHY_40
*879 PHY_41
*880 PHY_42
*881 PHY_43
*882 PHY_44
*883 PHY_45
*884 PHY_46
*885 PHY_47
*886 PHY_48
*887 PHY_49
*888 PHY_5
*889 PHY_50
*890 PHY_51
*891 PHY_52
*892 PHY_53
*893 PHY_54
*894 PHY_55
*895 PHY_56
*896 PHY_57
*897 PHY_58
*898 PHY_59
*899 PHY_6
*900 PHY_60
*901 PHY_61
*902 PHY_7
*903 PHY_8
*904 PHY_9
*905 TAP_100
*906 TAP_101
*907 TAP_102
*908 TAP_103
*909 TAP_104
*910 TAP_105
*911 TAP_106
*912 TAP_107
*913 TAP_108
*914 TAP_109
*915 TAP_110
*916 TAP_111
*917 TAP_112
*918 TAP_113
*919 TAP_114
*920 TAP_115
*921 TAP_116
*922 TAP_117
*923 TAP_118
*924 TAP_119
*925 TAP_120
*926 TAP_121
*927 TAP_122
*928 TAP_123
*929 TAP_124
*930 TAP_125
*931 TAP_126
*932 TAP_127
*933 TAP_128
*934 TAP_129
*935 TAP_130
*936 TAP_131
*937 TAP_132
*938 TAP_133
*939 TAP_134
*940 TAP_135
*941 TAP_136
*942 TAP_137
*943 TAP_138
*944 TAP_139
*945 TAP_140
*946 TAP_141
*947 TAP_142
*948 TAP_143
*949 TAP_144
*950 TAP_145
*951 TAP_146
*952 TAP_147
*953 TAP_148
*954 TAP_149
*955 TAP_150
*956 TAP_151
*957 TAP_152
*958 TAP_153
*959 TAP_154
*960 TAP_155
*961 TAP_156
*962 TAP_157
*963 TAP_158
*964 TAP_159
*965 TAP_160
*966 TAP_62
*967 TAP_63
*968 TAP_64
*969 TAP_65
*970 TAP_66
*971 TAP_67
*972 TAP_68
*973 TAP_69
*974 TAP_70
*975 TAP_71
*976 TAP_72
*977 TAP_73
*978 TAP_74
*979 TAP_75
*980 TAP_76
*981 TAP_77
*982 TAP_78
*983 TAP_79
*984 TAP_80
*985 TAP_81
*986 TAP_82
*987 TAP_83
*988 TAP_84
*989 TAP_85
*990 TAP_86
*991 TAP_87
*992 TAP_88
*993 TAP_89
*994 TAP_90
*995 TAP_91
*996 TAP_92
*997 TAP_93
*998 TAP_94
*999 TAP_95
*1000 TAP_96
*1001 TAP_97
*1002 TAP_98
*1003 TAP_99
*1004 _222_
*1005 _223_
*1006 _224_
*1007 _225_
*1008 _226_
*1009 _227_
*1010 _228_
*1011 _229_
*1012 _230_
*1013 _231_
*1014 _232_
*1015 _233_
*1016 _234_
*1017 _235_
*1018 _236_
*1019 _237_
*1020 _238_
*1021 _239_
*1022 _240_
*1023 _241_
*1024 _242_
*1025 _243_
*1026 _244_
*1027 _245_
*1028 _246_
*1029 _247_
*1030 _248_
*1031 _249_
*1032 _250_
*1033 _251_
*1034 _252_
*1035 _253_
*1036 _254_
*1037 _255_
*1038 _256_
*1039 _257_
*1040 _258_
*1041 _259_
*1042 _260_
*1043 _261_
*1044 _262_
*1045 _263_
*1046 _264_
*1047 _265_
*1048 _266_
*1049 _267_
*1050 _268_
*1051 _269_
*1052 _270_
*1053 _271_
*1054 _272_
*1055 _273_
*1056 _274_
*1057 _275_
*1058 _276_
*1059 _277_
*1060 _278_
*1061 _279_
*1062 _280_
*1063 _281_
*1064 _282_
*1065 _283_
*1066 _284_
*1067 _285_
*1068 _286_
*1069 _287_
*1070 _288_
*1071 _289_
*1072 _290_
*1073 _291_
*1074 _292_
*1075 _293_
*1076 _294_
*1077 _295_
*1078 _296_
*1079 _297_
*1080 _298_
*1081 _299_
*1082 _300_
*1083 _301_
*1084 _302_
*1085 _303_
*1086 _304_
*1087 _305_
*1088 _306_
*1089 _307_
*1090 _308_
*1091 _309_
*1092 _310_
*1093 _311_
*1094 _312_
*1095 _313_
*1096 _314_
*1097 _315_
*1098 _316_
*1099 _317_
*1100 _318_
*1101 _319_
*1102 _320_
*1103 _321_
*1104 _322_
*1105 _323_
*1106 _324_
*1107 _325_
*1108 _326_
*1109 _327_
*1110 _328_
*1111 _329_
*1112 _330_
*1113 _331_
*1114 _332_
*1115 _333_
*1116 _334_
*1117 _335_
*1118 _336_
*1119 _337_
*1120 _338_
*1121 _339_
*1122 _340_
*1123 _341_
*1124 _342_
*1125 _343_
*1126 _344_
*1127 _345_
*1128 _346_
*1129 _347_
*1130 _348_
*1131 _349_
*1132 _350_
*1133 _351_
*1134 _352_
*1135 _353_
*1136 _354_
*1137 _355_
*1138 _356_
*1139 _357_
*1140 _358_
*1141 _359_
*1142 _360_
*1143 _361_
*1144 _362_
*1145 _363_
*1146 _364_
*1147 _365_
*1148 _366_
*1149 _367_
*1150 _368_
*1151 _369_
*1152 _370_
*1153 _371_
*1154 _372_
*1155 _373_
*1156 _374_
*1157 _375_
*1158 _376_
*1159 _377_
*1160 _378_
*1161 _379_
*1162 _380_
*1163 _381_
*1164 _382_
*1165 _383_
*1166 _384_
*1167 _385_
*1168 _386_
*1169 _387_
*1170 _388_
*1171 _389_
*1172 _390_
*1173 _391_
*1174 _392_
*1175 _393_
*1176 _394_
*1177 _395_
*1178 _396_
*1179 _397_
*1180 _398_
*1181 _399_
*1182 _400_
*1183 _401_
*1184 _402_
*1185 _403_
*1186 _404_
*1187 _405_
*1188 _406_
*1189 _407_
*1190 _408_
*1191 _409_
*1192 _410_
*1193 _411_
*1194 _412_
*1195 _413_
*1196 _414_
*1197 _415_
*1198 _416_
*1199 _417_
*1200 _418_
*1201 _419_
*1202 _420_
*1203 _421_
*1204 _422_
*1205 _423_
*1206 _424_
*1207 _425_
*1208 _426_
*1209 _427_
*1210 _428_
*1211 _429_
*1212 _430_
*1213 _431_
*1214 _432_
*1215 _433_
*1216 _434_
*1217 _435_
*1218 _436_
*1219 _437_
*1220 _438__1
*1221 _439_
*1222 _440__2
*1223 _441_
*1224 _442_
*1225 _443_
*1226 _444_
*1227 _445_
*1228 _446__3
*1229 _447__4
*1230 _448__5
*1231 _449__6
*1232 _450__7
*1233 _451__8
*1234 _452__9
*1235 _453__10
*1236 _454_
*1237 _455_
*1238 _456_
*1239 _457_
*1240 _458_
*1241 _459_
*1242 _460_
*1243 _461_
*1244 _462_
*1245 _463_
*1246 _464_
*1247 _465_
*1248 _466_
*1249 _467_
*1250 _468_
*1251 _469_
*1252 _470_
*1253 _471_
*1254 _472_
*1255 _473_
*1256 _474_
*1257 _475_
*1258 _476_
*1259 _477_
*1260 _478_
*1261 _479_
*1262 _480_
*1263 _481_
*1264 _482_
*1265 _483_
*1266 _484_
*1267 _485_
*1268 _486_
*1269 _487_
*1270 _488_
*1271 _489_
*1272 _490_
*1273 _491_
*1274 _492_
*1275 _493_
*1276 _494_
*1277 _495_
*1278 _496_
*1279 _497_
*1280 _498_
*1281 _499_
*1282 clkbuf_0_SCK
*1283 clkbuf_0__221_
*1284 clkbuf_1_0__f__221_
*1285 clkbuf_1_1__f__221_
*1286 clkbuf_2_0__f_SCK
*1287 clkbuf_2_1__f_SCK
*1288 clkbuf_2_2__f_SCK
*1289 clkbuf_2_3__f_SCK
*1290 hold1
*1291 hold10
*1292 hold11
*1293 hold12
*1294 hold13
*1295 hold14
*1296 hold15
*1297 hold16
*1298 hold17
*1299 hold18
*1300 hold19
*1301 hold2
*1302 hold20
*1303 hold21
*1304 hold22
*1305 hold23
*1306 hold24
*1307 hold3
*1308 hold4
*1309 hold5
*1310 hold6
*1311 hold7
*1312 hold8
*1313 hold9
*1314 input1
*1315 input10
*1316 input11
*1317 input2
*1318 input3
*1319 input4
*1320 input5
*1321 input6
*1322 input7
*1323 input8
*1324 input9
*1325 max_cap38
*1326 output12
*1327 output13
*1328 output14
*1329 output15
*1330 output16
*1331 output17
*1332 output18
*1333 output19
*1334 output20
*1335 output21
*1336 output22
*1337 output23
*1338 output24
*1339 output25
*1340 output26
*1341 output27
*1342 output28
*1343 output29
*1344 output30
*1345 output31
*1346 output32
*1347 output33
*1348 output34
*1349 output35
*1350 output36
*1351 output37

*PORTS
CSB I
SCK I
SDI I
SDO O
idata[0] I
idata[1] I
idata[2] I
idata[3] I
idata[4] I
idata[5] I
idata[6] I
idata[7] I
oaddr[0] O
oaddr[1] O
oaddr[2] O
oaddr[3] O
oaddr[4] O
oaddr[5] O
oaddr[6] O
oaddr[7] O
odata[0] O
odata[1] O
odata[2] O
odata[3] O
odata[4] O
odata[5] O
odata[6] O
odata[7] O
pass_thru_mgmt O
pass_thru_mgmt_delay O
pass_thru_mgmt_reset O
pass_thru_user O
pass_thru_user_delay O
pass_thru_user_reset O
rdstb O
reset I
sdoenb O
wrstb O

*D_NET *1 0.000779361
*CONN
*P CSB I
*I *1314:A I *D sky130_fd_sc_hd__clkbuf_1
*CAP
1 CSB 0.00038968
2 *1314:A 0.00038968
3 *1314:A *1344:A 0
*RES
1 CSB *1314:A 10.35 
*END

*D_NET *2 0.00839599
*CONN
*P SCK I
*I *1282:A I *D sky130_fd_sc_hd__clkbuf_16
*CAP
1 SCK 0.00415019
2 *1282:A 0.00415019
3 *1282:A *1148:A 0
4 *1282:A *1160:A2 9.5606e-05
5 *1282:A *355:25 0
*RES
1 SCK *1282:A 16.1386 
*END

*D_NET *3 0.000449898
*CONN
*P SDI I
*I *1317:A I *D sky130_fd_sc_hd__buf_2
*CAP
1 SDI 0.000224949
2 *1317:A 0.000224949
*RES
1 SDI *1317:A 6.38543 
*END

*D_NET *4 0.000974228
*CONN
*P SDO O
*I *1326:X O *D sky130_fd_sc_hd__clkbuf_4
*CAP
1 SDO 0.000442981
2 *1326:X 0.000442981
3 SDO *136:103 8.8266e-05
*RES
1 *1326:X SDO 11.205 
*END

*D_NET *7 0.000947807
*CONN
*P idata[0] I
*I *1318:A I *D sky130_fd_sc_hd__clkbuf_1
*CAP
1 idata[0] 0.000445123
2 *1318:A 0.000445123
3 *1318:A *1011:A0 2.75229e-05
4 *1318:A *1032:A0 3.00381e-05
*RES
1 idata[0] *1318:A 11.625 
*END

*D_NET *8 0.00110382
*CONN
*P idata[1] I
*I *1319:A I *D sky130_fd_sc_hd__clkbuf_1
*CAP
1 idata[1] 0.000475523
2 *1319:A 0.000475523
3 *1319:A *1011:A0 0.0001249
4 *1319:A *1041:B2 2.78732e-05
5 *1319:A *136:103 0
*RES
1 idata[1] *1319:A 12.315 
*END

*D_NET *9 0.00108366
*CONN
*P idata[2] I
*I *1320:A I *D sky130_fd_sc_hd__clkbuf_1
*CAP
1 idata[2] 0.000517686
2 *1320:A 0.000517686
3 *1320:A sdoenb 0
4 *1320:A *1350:A 4.82919e-05
*RES
1 idata[2] *1320:A 12.765 
*END

*D_NET *10 0.00163771
*CONN
*P idata[3] I
*I *1321:A I *D sky130_fd_sc_hd__clkbuf_1
*CAP
1 idata[3] 0.000793872
2 *1321:A 0.000793872
3 *1321:A *1066:A1 4.99619e-05
*RES
1 idata[3] *1321:A 17.13 
*END

*D_NET *11 0.000763257
*CONN
*P idata[4] I
*I *1322:A I *D sky130_fd_sc_hd__clkbuf_1
*CAP
1 idata[4] 0.000381629
2 *1322:A 0.000381629
3 *1322:A oaddr[2] 0
4 *1322:A *1329:A 0
*RES
1 idata[4] *1322:A 10.455 
*END

*D_NET *12 0.000549751
*CONN
*P idata[5] I
*I *1323:A I *D sky130_fd_sc_hd__buf_1
*CAP
1 idata[5] 0.000274876
2 *1323:A 0.000274876
*RES
1 idata[5] *1323:A 7.40543 
*END

*D_NET *13 0.000856539
*CONN
*P idata[6] I
*I *1324:A I *D sky130_fd_sc_hd__clkbuf_1
*CAP
1 idata[6] 0.000414918
2 *1324:A 0.000414918
3 *1324:A *1016:A0 2.67022e-05
4 *1324:A *1338:A 0
*RES
1 idata[6] *1324:A 6.93177 
*END

*D_NET *14 0.000982104
*CONN
*P idata[7] I
*I *1315:A I *D sky130_fd_sc_hd__clkbuf_1
*CAP
1 idata[7] 0.000441925
2 *1315:A 0.000441925
3 *1315:A *1032:A0 4.99619e-05
4 *1315:A *1350:A 4.82919e-05
*RES
1 idata[7] *1315:A 11.625 
*END

*D_NET *15 0.000997804
*CONN
*P oaddr[0] O
*I *1327:X O *D sky130_fd_sc_hd__clkbuf_4
*CAP
1 oaddr[0] 0.000468569
2 *1327:X 0.000468569
3 oaddr[0] *1327:A 6.06649e-05
*RES
1 *1327:X oaddr[0] 5.98503 
*END

*D_NET *16 0.00044754
*CONN
*P oaddr[1] O
*I *1328:X O *D sky130_fd_sc_hd__clkbuf_4
*CAP
1 oaddr[1] 0.00022377
2 *1328:X 0.00022377
3 oaddr[1] *1178:A 0
*RES
1 *1328:X oaddr[1] 5.10177 
*END

*D_NET *17 0.000865332
*CONN
*P oaddr[2] O
*I *1329:X O *D sky130_fd_sc_hd__clkbuf_4
*CAP
1 oaddr[2] 0.000432666
2 *1329:X 0.000432666
3 *1322:A oaddr[2] 0
*RES
1 *1329:X oaddr[2] 8.08157 
*END

*D_NET *18 0.000769383
*CONN
*P oaddr[3] O
*I *1330:X O *D sky130_fd_sc_hd__clkbuf_4
*CAP
1 oaddr[3] 0.000384691
2 *1330:X 0.000384691
3 oaddr[3] *1329:A 0
*RES
1 *1330:X oaddr[3] 7.8087 
*END

*D_NET *19 0.00109572
*CONN
*P oaddr[4] O
*I *1331:X O *D sky130_fd_sc_hd__buf_2
*CAP
1 oaddr[4] 0.000538211
2 *1331:X 0.000538211
3 oaddr[4] *1338:A 1.92979e-05
4 oaddr[4] *132:93 0
*RES
1 *1331:X oaddr[4] 5.37117 
*END

*D_NET *20 0.00221784
*CONN
*P oaddr[5] O
*I *1332:X O *D sky130_fd_sc_hd__clkbuf_4
*CAP
1 oaddr[5] 0.00101497
2 *1332:X 0.00101497
3 oaddr[5] *1332:A 2.30292e-05
4 oaddr[5] *1340:A 0.000164874
*RES
1 *1332:X oaddr[5] 19.875 
*END

*D_NET *21 0.00174874
*CONN
*P oaddr[6] O
*I *1333:X O *D sky130_fd_sc_hd__clkbuf_4
*CAP
1 oaddr[6] 0.00087437
2 *1333:X 0.00087437
*RES
1 *1333:X oaddr[6] 18.075 
*END

*D_NET *22 0.000852625
*CONN
*P oaddr[7] O
*I *1334:X O *D sky130_fd_sc_hd__clkbuf_4
*CAP
1 oaddr[7] 0.000426313
2 *1334:X 0.000426313
3 oaddr[7] *1332:A 0
*RES
1 *1334:X oaddr[7] 6.14463 
*END

*D_NET *23 0.000707074
*CONN
*P odata[0] O
*I *1335:X O *D sky130_fd_sc_hd__clkbuf_4
*CAP
1 odata[0] 0.000353537
2 *1335:X 0.000353537
*RES
1 *1335:X odata[0] 9.945 
*END

*D_NET *24 0.000711522
*CONN
*P odata[1] O
*I *1336:X O *D sky130_fd_sc_hd__clkbuf_4
*CAP
1 odata[1] 0.000343187
2 *1336:X 0.000343187
3 odata[1] *1329:A 2.51475e-05
*RES
1 *1336:X odata[1] 5.61003 
*END

*D_NET *25 0.00119697
*CONN
*P odata[2] O
*I *1337:X O *D sky130_fd_sc_hd__clkbuf_4
*CAP
1 odata[2] 0.000468154
2 *1337:X 0.000468154
3 odata[2] *1064:A0 0.0001249
4 odata[2] *1064:A1 3.23663e-05
5 odata[2] *1064:S 5.30673e-05
6 odata[2] *1261:D 5.03301e-05
*RES
1 *1337:X odata[2] 12.51 
*END

*D_NET *26 0.000863926
*CONN
*P odata[3] O
*I *1338:X O *D sky130_fd_sc_hd__clkbuf_4
*CAP
1 odata[3] 0.000430634
2 *1338:X 0.000430634
3 odata[3] *1326:A 2.65814e-06
*RES
1 *1338:X odata[3] 10.86 
*END

*D_NET *27 0.000779209
*CONN
*P odata[4] O
*I *1339:X O *D sky130_fd_sc_hd__buf_2
*CAP
1 odata[4] 0.000389605
2 *1339:X 0.000389605
3 odata[4] *1329:A 0
*RES
1 *1339:X odata[4] 7.37197 
*END

*D_NET *28 0.000659801
*CONN
*P odata[5] O
*I *1340:X O *D sky130_fd_sc_hd__clkbuf_4
*CAP
1 odata[5] 0.000329901
2 *1340:X 0.000329901
*RES
1 *1340:X odata[5] 9.39 
*END

*D_NET *29 0.00186773
*CONN
*P odata[6] O
*I *1341:X O *D sky130_fd_sc_hd__clkbuf_4
*CAP
1 odata[6] 0.000758841
2 *1341:X 0.000758841
3 odata[6] *1060:A0 1.33293e-05
4 odata[6] *1060:A1 0.000162311
5 odata[6] *1062:S 0
6 odata[6] *1063:A 7.89689e-05
7 odata[6] *265:37 9.54399e-05
*RES
1 *1341:X odata[6] 16.59 
*END

*D_NET *30 0.000607063
*CONN
*P odata[7] O
*I *1342:X O *D sky130_fd_sc_hd__clkbuf_4
*CAP
1 odata[7] 0.000303531
2 *1342:X 0.000303531
3 odata[7] *1334:A 0
*RES
1 *1342:X odata[7] 7.66043 
*END

*D_NET *31 0.000656175
*CONN
*P pass_thru_mgmt O
*I *1343:X O *D sky130_fd_sc_hd__buf_2
*CAP
1 pass_thru_mgmt 0.000317566
2 *1343:X 0.000317566
3 pass_thru_mgmt *1329:A 2.10433e-05
*RES
1 *1343:X pass_thru_mgmt 4.9633 
*END

*D_NET *32 0.000656106
*CONN
*P pass_thru_mgmt_delay O
*I *1344:X O *D sky130_fd_sc_hd__clkbuf_4
*CAP
1 pass_thru_mgmt_delay 0.000328053
2 *1344:X 0.000328053
*RES
1 *1344:X pass_thru_mgmt_delay 9.39 
*END

*D_NET *33 0.000773625
*CONN
*P pass_thru_mgmt_reset O
*I *1345:X O *D sky130_fd_sc_hd__clkbuf_4
*CAP
1 pass_thru_mgmt_reset 0.000386813
2 *1345:X 0.000386813
3 pass_thru_mgmt_reset pass_thru_user 0
*RES
1 *1345:X pass_thru_mgmt_reset 5.86503 
*END

*D_NET *34 0.00206678
*CONN
*P pass_thru_user O
*I *1346:X O *D sky130_fd_sc_hd__clkbuf_4
*CAP
1 pass_thru_user 0.00103339
2 *1346:X 0.00103339
3 pass_thru_mgmt_reset pass_thru_user 0
*RES
1 *1346:X pass_thru_user 20.43 
*END

*D_NET *35 0.000938283
*CONN
*P pass_thru_user_delay O
*I *1347:X O *D sky130_fd_sc_hd__clkbuf_4
*CAP
1 pass_thru_user_delay 0.000444161
2 *1347:X 0.000444161
3 pass_thru_user_delay *1011:A0 4.99619e-05
*RES
1 *1347:X pass_thru_user_delay 11.31 
*END

*D_NET *36 0.00140182
*CONN
*P pass_thru_user_reset O
*I *1348:X O *D sky130_fd_sc_hd__clkbuf_4
*CAP
1 pass_thru_user_reset 0.000561015
2 *1348:X 0.000561015
3 pass_thru_user_reset *1011:A0 0.000279787
*RES
1 *1348:X pass_thru_user_reset 12.93 
*END

*D_NET *37 0.000656106
*CONN
*P rdstb O
*I *1349:X O *D sky130_fd_sc_hd__clkbuf_4
*CAP
1 rdstb 0.000328053
2 *1349:X 0.000328053
*RES
1 *1349:X rdstb 9.39 
*END

*D_NET *38 0.000449924
*CONN
*P reset I
*I *1316:A I *D sky130_fd_sc_hd__clkbuf_1
*CAP
1 reset 0.000224962
2 *1316:A 0.000224962
*RES
1 reset *1316:A 6.38543 
*END

*D_NET *39 0.000941572
*CONN
*P sdoenb O
*I *1350:X O *D sky130_fd_sc_hd__buf_6
*CAP
1 sdoenb 0.000470786
2 *1350:X 0.000470786
3 *1320:A sdoenb 0
*RES
1 *1350:X sdoenb 7.3377 
*END

*D_NET *40 0.000727854
*CONN
*P wrstb O
*I *1351:X O *D sky130_fd_sc_hd__buf_2
*CAP
1 wrstb 0.000332684
2 *1351:X 0.000332684
3 wrstb *1329:A 6.24871e-05
*RES
1 *1351:X wrstb 5.4733 
*END

*D_NET *41 0.000937734
*CONN
*I *1265:D I *D sky130_fd_sc_hd__dfstp_1
*I *1167:X O *D sky130_fd_sc_hd__o21a_1
*CAP
1 *1265:D 0.000325065
2 *1167:X 0.000325065
3 *1265:D *1035:B 0
4 *1265:D *1167:A1 6.5368e-05
5 *1265:D *1167:B1 0
6 *1265:D *132:128 5.72004e-05
7 *1265:D *134:25 0
8 *1265:D *134:35 5.05437e-05
9 *1265:D *264:12 0.000114492
*RES
1 *1167:X *1265:D 12.9 
*END

*D_NET *42 0.00233643
*CONN
*I *1268:D I *D sky130_fd_sc_hd__dfstp_2
*I *1165:X O *D sky130_fd_sc_hd__a2bb2o_1
*CAP
1 *1268:D 0.000830377
2 *1165:X 0.000830377
3 *1268:D *1059:A 4.82919e-05
4 *1268:D *1059:B 7.44453e-05
5 *1268:D *1111:B1 2.68464e-05
6 *1268:D *1165:A2_N 3.64998e-06
7 *1268:D *1196:A 4.99619e-05
8 *1268:D *250:75 0.000210911
9 *1268:D *293:46 0.000139245
10 *1268:D *357:6 0.000122325
*RES
1 *1165:X *1268:D 21.465 
*END

*D_NET *43 0.00114009
*CONN
*I *1312:A I *D sky130_fd_sc_hd__dlygate4sd3_1
*I *1159:X O *D sky130_fd_sc_hd__a41o_1
*CAP
1 *1312:A 0.000267966
2 *1159:X 0.000267966
3 *1312:A *1159:B1 0
4 *1312:A *1172:A 0.000124007
5 *1312:A *1269:RESET_B 0.000184065
6 *1312:A *355:48 0.000296088
*RES
1 *1159:X *1312:A 12.9 
*END

*D_NET *44 0.000401892
*CONN
*I *1270:D I *D sky130_fd_sc_hd__dfrtp_4
*I *1164:X O *D sky130_fd_sc_hd__a22o_1
*CAP
1 *1270:D 0.000132416
2 *1164:X 0.000132416
3 *1270:D *1164:B1 0.000122325
4 *1270:D *247:22 1.47347e-05
*RES
1 *1164:X *1270:D 5.045 
*END

*D_NET *45 0.000631979
*CONN
*I *1271:D I *D sky130_fd_sc_hd__dfrtp_1
*I *1161:Y O *D sky130_fd_sc_hd__inv_2
*CAP
1 *1271:D 0.000255896
2 *1161:Y 0.000255896
3 *1271:D *201:14 0
4 *1271:D *293:46 0.000120186
*RES
1 *1161:Y *1271:D 11.445 
*END

*D_NET *46 0.000643993
*CONN
*I *1292:A I *D sky130_fd_sc_hd__dlygate4sd3_1
*I *1158:X O *D sky130_fd_sc_hd__a31o_1
*CAP
1 *1292:A 8.65171e-05
2 *1158:X 8.65171e-05
3 *1292:A *1158:A3 1.85674e-05
4 *1292:A *1158:B1 0.0001022
5 *1292:A *1272:D 8.23457e-05
6 *1292:A *352:20 0.000267846
*RES
1 *1158:X *1292:A 6.08 
*END

*D_NET *47 0.000312927
*CONN
*I *1236:RESET_B I *D sky130_fd_sc_hd__dfrtp_1
*I *1186:Y O *D sky130_fd_sc_hd__nor2_1
*CAP
1 *1236:RESET_B 5.09017e-05
2 *1186:Y 5.09017e-05
3 *1236:RESET_B *1284:A 6.65066e-05
4 *1236:RESET_B *193:50 2.60908e-05
5 *1236:RESET_B *268:14 0.000118527
*RES
1 *1186:Y *1236:RESET_B 7.49 
*END

*D_NET *48 0.000970024
*CONN
*I *1237:RESET_B I *D sky130_fd_sc_hd__dfrtp_1
*I *1187:Y O *D sky130_fd_sc_hd__nor2_1
*CAP
1 *1237:RESET_B 0.000329133
2 *1187:Y 0.000329133
3 *1237:RESET_B *1181:A 0.000311758
4 *1237:RESET_B *1189:A 0
*RES
1 *1187:Y *1237:RESET_B 10.355 
*END

*D_NET *49 0.000527913
*CONN
*I *1238:RESET_B I *D sky130_fd_sc_hd__dfrtp_1
*I *1188:Y O *D sky130_fd_sc_hd__nor2_1
*CAP
1 *1238:RESET_B 0.000165281
2 *1188:Y 0.000165281
3 *1238:RESET_B *246:24 8.53113e-06
4 *1238:RESET_B *247:22 1.31297e-05
5 *1238:RESET_B *247:26 6.69608e-06
6 *1238:RESET_B *268:16 7.69078e-05
7 *1238:RESET_B *305:16 4.9968e-05
8 *1238:RESET_B *359:91 4.21178e-05
*RES
1 *1188:Y *1238:RESET_B 8.4275 
*END

*D_NET *50 0.000935163
*CONN
*I *1239:RESET_B I *D sky130_fd_sc_hd__dfrtp_1
*I *1189:Y O *D sky130_fd_sc_hd__nor2_1
*CAP
1 *1239:RESET_B 0.000357851
2 *1189:Y 0.000357851
3 *1239:RESET_B *1028:A1 8.49454e-05
4 *1239:RESET_B *1176:A 9.40111e-05
5 *1239:RESET_B *1189:A 0
6 *1239:RESET_B *134:60 4.05053e-05
*RES
1 *1189:Y *1239:RESET_B 10.535 
*END

*D_NET *51 0.000312752
*CONN
*I *1240:RESET_B I *D sky130_fd_sc_hd__dfrtp_1
*I *1190:Y O *D sky130_fd_sc_hd__nor2_1
*CAP
1 *1240:RESET_B 0.00012203
2 *1190:Y 0.00012203
3 *1240:RESET_B *1183:A 5.63318e-05
4 *1240:RESET_B *1350:A 0
5 *1240:RESET_B *308:8 1.23607e-05
*RES
1 *1190:Y *1240:RESET_B 7.8875 
*END

*D_NET *52 0.00113093
*CONN
*I *1241:RESET_B I *D sky130_fd_sc_hd__dfrtp_4
*I *1191:Y O *D sky130_fd_sc_hd__nor2_1
*CAP
1 *1241:RESET_B 0.00031645
2 *1191:Y 0.00031645
3 *1241:RESET_B *1241:CLK 0.000228647
4 *1241:RESET_B *253:10 1.60203e-05
5 *1241:RESET_B *253:58 0.000253364
*RES
1 *1191:Y *1241:RESET_B 7.9825 
*END

*D_NET *53 0.000407664
*CONN
*I *1242:RESET_B I *D sky130_fd_sc_hd__dfrtp_4
*I *1192:Y O *D sky130_fd_sc_hd__nor2_1
*CAP
1 *1242:RESET_B 0.000153781
2 *1192:Y 0.000153781
3 *1242:RESET_B *254:12 4.70343e-05
4 *1242:RESET_B *267:79 5.30673e-05
*RES
1 *1192:Y *1242:RESET_B 8.285 
*END

*D_NET *54 0.000347955
*CONN
*I *1243:RESET_B I *D sky130_fd_sc_hd__dfrtp_4
*I *1193:Y O *D sky130_fd_sc_hd__nor2_1
*CAP
1 *1243:RESET_B 0.000129844
2 *1193:Y 0.000129844
3 *1243:RESET_B *255:16 8.8266e-05
*RES
1 *1193:Y *1243:RESET_B 7.52 
*END

*D_NET *55 0.000279747
*CONN
*I *1244:RESET_B I *D sky130_fd_sc_hd__dfrtp_2
*I *1194:Y O *D sky130_fd_sc_hd__nor2_1
*CAP
1 *1244:RESET_B 6.94211e-05
2 *1194:Y 6.94211e-05
3 *1244:RESET_B *1149:S 0
4 *1244:RESET_B *1190:B 0.000140905
*RES
1 *1194:Y *1244:RESET_B 7.235 
*END

*D_NET *56 0.000563363
*CONN
*I *1245:RESET_B I *D sky130_fd_sc_hd__dfrtp_4
*I *1195:Y O *D sky130_fd_sc_hd__nor2_1
*CAP
1 *1245:RESET_B 0.000100433
2 *1195:Y 0.000100433
3 *1245:RESET_B *192:48 8.40213e-05
4 *1245:RESET_B *203:18 0.000139238
5 *1245:RESET_B *247:64 0.000139238
*RES
1 *1195:Y *1245:RESET_B 8.03 
*END

*D_NET *57 0.000318782
*CONN
*I *1246:RESET_B I *D sky130_fd_sc_hd__dfrtp_2
*I *1198:Y O *D sky130_fd_sc_hd__nor2_1
*CAP
1 *1246:RESET_B 0.000144372
2 *1198:Y 0.000144372
3 *1246:RESET_B *1198:B 3.00381e-05
4 *1246:RESET_B *186:40 0
*RES
1 *1198:Y *1246:RESET_B 7.88 
*END

*D_NET *58 0.000619172
*CONN
*I *1247:RESET_B I *D sky130_fd_sc_hd__dfrtp_1
*I *1199:Y O *D sky130_fd_sc_hd__nor2_1
*CAP
1 *1247:RESET_B 0.000211806
2 *1199:Y 0.000211806
3 *1247:RESET_B *1109:S 7.81876e-05
4 *1247:RESET_B *131:14 0.000117373
*RES
1 *1199:Y *1247:RESET_B 9.065 
*END

*D_NET *59 0.000312097
*CONN
*I *1248:RESET_B I *D sky130_fd_sc_hd__dfrtp_1
*I *1200:Y O *D sky130_fd_sc_hd__nor2_1
*CAP
1 *1248:RESET_B 0.000100451
2 *1200:Y 0.000100451
3 *1248:RESET_B *265:73 0.000111194
*RES
1 *1200:Y *1248:RESET_B 3.3775 
*END

*D_NET *60 0.00042003
*CONN
*I *1249:RESET_B I *D sky130_fd_sc_hd__dfrtp_1
*I *1201:Y O *D sky130_fd_sc_hd__nor2_1
*CAP
1 *1249:RESET_B 8.5045e-05
2 *1201:Y 8.5045e-05
3 *1249:RESET_B *1201:B 2.11084e-05
4 *1249:RESET_B *248:73 6.65066e-05
5 *1249:RESET_B *270:12 0.000162325
*RES
1 *1201:Y *1249:RESET_B 7.94 
*END

*D_NET *61 0.000563366
*CONN
*I *1250:RESET_B I *D sky130_fd_sc_hd__dfrtp_4
*I *1202:Y O *D sky130_fd_sc_hd__nor2_1
*CAP
1 *1250:RESET_B 0.000202581
2 *1202:Y 0.000202581
3 *1250:RESET_B *1349:A 0
4 *1250:RESET_B *249:89 1.08758e-05
5 *1250:RESET_B *249:100 6.52265e-05
6 *1250:RESET_B *249:111 1.47347e-05
7 *1250:RESET_B *271:10 6.73665e-05
*RES
1 *1202:Y *1250:RESET_B 8.975 
*END

*D_NET *62 0.000300779
*CONN
*I *1251:RESET_B I *D sky130_fd_sc_hd__dfrtp_4
*I *1203:Y O *D sky130_fd_sc_hd__nor2_1
*CAP
1 *1251:RESET_B 0.000114572
2 *1203:Y 0.000114572
3 *1251:RESET_B *1349:A 7.1635e-05
4 *1251:RESET_B *271:10 0
*RES
1 *1203:Y *1251:RESET_B 7.745 
*END

*D_NET *63 0.000260388
*CONN
*I *1252:RESET_B I *D sky130_fd_sc_hd__dfrtp_1
*I *1204:Y O *D sky130_fd_sc_hd__nor2_1
*CAP
1 *1252:RESET_B 0.000102827
2 *1204:Y 0.000102827
3 *1252:RESET_B *1205:B 5.47337e-05
4 *1252:RESET_B *251:80 0
*RES
1 *1204:Y *1252:RESET_B 7.49 
*END

*D_NET *64 0.000239496
*CONN
*I *1253:RESET_B I *D sky130_fd_sc_hd__dfrtp_1
*I *1205:Y O *D sky130_fd_sc_hd__nor2_1
*CAP
1 *1253:RESET_B 0.000119748
2 *1205:Y 0.000119748
3 *1253:RESET_B *154:14 0
*RES
1 *1205:Y *1253:RESET_B 7.49 
*END

*D_NET *65 0.000232915
*CONN
*I *1254:RESET_B I *D sky130_fd_sc_hd__dfrtp_1
*I *1206:Y O *D sky130_fd_sc_hd__nor2_1
*CAP
1 *1254:RESET_B 0.000116457
2 *1206:Y 0.000116457
3 *1254:RESET_B *1256:D 0
4 *1254:RESET_B *251:55 0
5 *1254:RESET_B *265:22 0
*RES
1 *1206:Y *1254:RESET_B 7.49 
*END

*D_NET *66 0.000429565
*CONN
*I *1255:RESET_B I *D sky130_fd_sc_hd__dfrtp_2
*I *1207:Y O *D sky130_fd_sc_hd__nor2_1
*CAP
1 *1255:RESET_B 0.000136705
2 *1207:Y 0.000136705
3 *1255:RESET_B *248:20 0.000156155
4 *1255:RESET_B *249:33 0
*RES
1 *1207:Y *1255:RESET_B 8.765 
*END

*D_NET *67 0.000517754
*CONN
*I *1256:RESET_B I *D sky130_fd_sc_hd__dfrtp_1
*I *1210:Y O *D sky130_fd_sc_hd__nor2_1
*CAP
1 *1256:RESET_B 0.000195592
2 *1210:Y 0.000195592
3 *1256:RESET_B *300:16 0.00012657
*RES
1 *1210:Y *1256:RESET_B 8.63 
*END

*D_NET *68 0.000571646
*CONN
*I *1257:RESET_B I *D sky130_fd_sc_hd__dfrtp_1
*I *1211:Y O *D sky130_fd_sc_hd__nor2_1
*CAP
1 *1257:RESET_B 0.000167877
2 *1211:Y 0.000167877
3 *1257:RESET_B *250:146 0.000235891
*RES
1 *1211:Y *1257:RESET_B 8.63 
*END

*D_NET *69 0.000320242
*CONN
*I *1258:RESET_B I *D sky130_fd_sc_hd__dfrtp_1
*I *1212:Y O *D sky130_fd_sc_hd__nor2_1
*CAP
1 *1258:RESET_B 7.81253e-05
2 *1212:Y 7.81253e-05
3 *1258:RESET_B *250:103 0.000163992
4 *1258:RESET_B *266:120 0
*RES
1 *1212:Y *1258:RESET_B 7.49 
*END

*D_NET *70 0.00061063
*CONN
*I *1259:RESET_B I *D sky130_fd_sc_hd__dfrtp_1
*I *1213:Y O *D sky130_fd_sc_hd__nor2_1
*CAP
1 *1259:RESET_B 9.77927e-05
2 *1213:Y 9.77927e-05
3 *1259:RESET_B *1024:A0 0.000166346
4 *1259:RESET_B *1213:B 3.74161e-05
5 *1259:RESET_B *1214:B 0.000164672
6 *1259:RESET_B *251:114 4.66108e-05
*RES
1 *1213:Y *1259:RESET_B 8.285 
*END

*D_NET *71 0.000318477
*CONN
*I *1260:RESET_B I *D sky130_fd_sc_hd__dfrtp_1
*I *1214:Y O *D sky130_fd_sc_hd__nor2_1
*CAP
1 *1260:RESET_B 8.85562e-05
2 *1214:Y 8.85562e-05
3 *1260:RESET_B *1066:A1 4.82863e-05
4 *1260:RESET_B *1214:A 9.30787e-05
5 *1260:RESET_B *313:41 0
*RES
1 *1214:Y *1260:RESET_B 7.175 
*END

*D_NET *72 0.000246256
*CONN
*I *1261:RESET_B I *D sky130_fd_sc_hd__dfrtp_1
*I *1215:Y O *D sky130_fd_sc_hd__nor2_1
*CAP
1 *1261:RESET_B 0.000113936
2 *1215:Y 0.000113936
3 *1261:RESET_B *1215:A 1.83847e-05
*RES
1 *1215:Y *1261:RESET_B 7.175 
*END

*D_NET *73 0.00119183
*CONN
*I *1262:RESET_B I *D sky130_fd_sc_hd__dfrtp_1
*I *1216:Y O *D sky130_fd_sc_hd__nor2_1
*CAP
1 *1262:RESET_B 0.00025203
2 *1216:Y 0.00025203
3 *1262:RESET_B *1305:A 1.34361e-05
4 *1262:RESET_B *1335:A 7.4027e-05
5 *1262:RESET_B *250:36 0.000163012
6 *1262:RESET_B *265:26 0.000192716
7 *1262:RESET_B *300:16 0.000200615
8 *1262:RESET_B *301:23 4.39656e-05
*RES
1 *1216:Y *1262:RESET_B 11.0975 
*END

*D_NET *74 0.00094061
*CONN
*I *1263:RESET_B I *D sky130_fd_sc_hd__dfrtp_1
*I *1217:Y O *D sky130_fd_sc_hd__nor2_1
*CAP
1 *1263:RESET_B 0.00029307
2 *1217:Y 0.00029307
3 *1263:RESET_B *1300:A 0.000275553
4 *1263:RESET_B *250:18 4.77757e-05
5 *1263:RESET_B *250:36 3.11409e-05
*RES
1 *1217:Y *1263:RESET_B 6.4975 
*END

*D_NET *75 0.000458388
*CONN
*I *1264:RESET_B I *D sky130_fd_sc_hd__dfrtp_4
*I *1218:Y O *D sky130_fd_sc_hd__nor2_1
*CAP
1 *1264:RESET_B 0.000120436
2 *1218:Y 0.000120436
3 *1264:RESET_B *1344:A 6.65066e-05
4 *1264:RESET_B *187:14 6.44134e-05
5 *1264:RESET_B *250:99 8.65961e-05
*RES
1 *1218:Y *1264:RESET_B 8.285 
*END

*D_NET *76 0.000357479
*CONN
*I *1265:SET_B I *D sky130_fd_sc_hd__dfstp_1
*I *1053:Y O *D sky130_fd_sc_hd__nor2_1
*CAP
1 *1265:SET_B 0.000120075
2 *1053:Y 0.000120075
3 *1265:SET_B *1035:A 6.73665e-05
4 *1265:SET_B *1176:A 4.99619e-05
5 *1265:SET_B *355:48 0
*RES
1 *1053:Y *1265:SET_B 7.94 
*END

*D_NET *77 0.00143174
*CONN
*I *1266:RESET_B I *D sky130_fd_sc_hd__dfrtp_1
*I *1221:Y O *D sky130_fd_sc_hd__nor2_1
*CAP
1 *1266:RESET_B 0.000249689
2 *1221:Y 0.000249689
3 *1266:RESET_B *1057:B1 0.000187032
4 *1266:RESET_B *1160:A2 0.000383684
5 *1266:RESET_B *1165:A1_N 0
6 *1266:RESET_B *1165:B1 2.69102e-06
7 *1266:RESET_B *1165:B2 0.000117825
8 *1266:RESET_B *1299:A 0.000139231
9 *1266:RESET_B *154:24 4.11729e-05
10 *1266:RESET_B *193:14 2.20753e-05
11 *1266:RESET_B *250:91 3.86529e-05
*RES
1 *1221:Y *1266:RESET_B 13.2425 
*END

*D_NET *78 0.000490108
*CONN
*I *1267:RESET_B I *D sky130_fd_sc_hd__dfrtp_1
*I *1042:Y O *D sky130_fd_sc_hd__nor2_1
*CAP
1 *1267:RESET_B 0.000172613
2 *1042:Y 0.000172613
3 *1267:RESET_B *1233:A 0.000144882
4 *1267:RESET_B *1267:D 0
*RES
1 *1042:Y *1267:RESET_B 9.53 
*END

*D_NET *79 0.000267145
*CONN
*I *1268:SET_B I *D sky130_fd_sc_hd__dfstp_2
*I *1223:Y O *D sky130_fd_sc_hd__nor2_1
*CAP
1 *1268:SET_B 8.7757e-05
2 *1223:Y 8.7757e-05
3 *1268:SET_B *1208:A 0
4 *1268:SET_B *131:16 0
5 *1268:SET_B *133:34 9.16315e-05
*RES
1 *1223:Y *1268:SET_B 7.49 
*END

*D_NET *80 0.000590214
*CONN
*I *1269:RESET_B I *D sky130_fd_sc_hd__dfrtp_1
*I *1224:Y O *D sky130_fd_sc_hd__nor2_1
*CAP
1 *1269:RESET_B 0.000188726
2 *1224:Y 0.000188726
3 *1269:RESET_B *1224:A 0
4 *1269:RESET_B *1224:B 2.86975e-05
5 *1269:RESET_B *134:14 0
6 *1312:A *1269:RESET_B 0.000184065
*RES
1 *1224:Y *1269:RESET_B 8.915 
*END

*D_NET *81 0.000513575
*CONN
*I *1270:RESET_B I *D sky130_fd_sc_hd__dfrtp_4
*I *1225:Y O *D sky130_fd_sc_hd__nor2_1
*CAP
1 *1270:RESET_B 8.30627e-05
2 *1225:Y 8.30627e-05
3 *1270:RESET_B *1057:B1 0.000159964
4 *1270:RESET_B *131:110 2.75229e-05
5 *1270:RESET_B *355:25 0.000159964
*RES
1 *1225:Y *1270:RESET_B 7.94 
*END

*D_NET *82 0.000327351
*CONN
*I *1271:RESET_B I *D sky130_fd_sc_hd__dfrtp_1
*I *1226:Y O *D sky130_fd_sc_hd__nor2_1
*CAP
1 *1271:RESET_B 8.18883e-05
2 *1226:Y 8.18883e-05
3 *1271:RESET_B *131:76 3.89528e-05
4 *1271:RESET_B *133:66 9.71067e-05
5 *1271:RESET_B *186:22 2.75145e-05
*RES
1 *1226:Y *1271:RESET_B 7.535 
*END

*D_NET *83 0.00156104
*CONN
*I *1272:RESET_B I *D sky130_fd_sc_hd__dfrtp_1
*I *1227:Y O *D sky130_fd_sc_hd__nor2_1
*CAP
1 *1272:RESET_B 0.000215644
2 *1227:Y 0.000215644
3 *1272:RESET_B *1167:A1 0.000483358
4 *1272:RESET_B *1174:A 0.000158066
5 *1272:RESET_B *1272:CLK 5.39961e-05
6 *1272:RESET_B *131:127 9.78012e-05
7 *1272:RESET_B *132:128 0.000247664
8 *1272:RESET_B *358:25 8.88715e-05
*RES
1 *1227:Y *1272:RESET_B 13.565 
*END

*D_NET *84 0.00037718
*CONN
*I *1273:RESET_B I *D sky130_fd_sc_hd__dfrtp_1
*I *1039:Y O *D sky130_fd_sc_hd__nor2_1
*CAP
1 *1273:RESET_B 0.000156898
2 *1039:Y 0.000156898
3 *1273:RESET_B *1013:S 0
4 *1273:RESET_B *1036:A1 1.32907e-06
5 *1273:RESET_B *1309:A 3.86529e-05
6 *1273:RESET_B *136:97 0
7 *1273:RESET_B *275:6 2.34022e-05
*RES
1 *1039:Y *1273:RESET_B 8.2325 
*END

*D_NET *85 0.00014677
*CONN
*I *1274:RESET_B I *D sky130_fd_sc_hd__dfrtp_1
*I *1035:Y O *D sky130_fd_sc_hd__nor2_1
*CAP
1 *1274:RESET_B 7.33848e-05
2 *1035:Y 7.33848e-05
3 *1274:RESET_B *1229:A 0
*RES
1 *1035:Y *1274:RESET_B 6.725 
*END

*D_NET *86 0.000292064
*CONN
*I *1275:RESET_B I *D sky130_fd_sc_hd__dfrtp_1
*I *1031:Y O *D sky130_fd_sc_hd__nor2_1
*CAP
1 *1275:RESET_B 0.000107268
2 *1031:Y 0.000107268
3 *1275:RESET_B *134:35 4.88317e-05
4 *1275:RESET_B *134:48 2.86975e-05
*RES
1 *1031:Y *1275:RESET_B 3.3775 
*END

*D_NET *87 0.00150478
*CONN
*I *1276:RESET_B I *D sky130_fd_sc_hd__dfrtp_1
*I *1027:Y O *D sky130_fd_sc_hd__nor2_1
*CAP
1 *1276:RESET_B 0.000610369
2 *1027:Y 0.000610369
3 *1276:RESET_B *1024:A1 0
4 *1276:RESET_B *1026:A 0
5 *1276:RESET_B *1028:A1 0
6 *1276:RESET_B *1045:A1 0
7 *1276:RESET_B *1231:A 0
8 *1276:RESET_B *1276:CLK 0
9 *1276:RESET_B *1277:CLK 2.03321e-05
10 *1276:RESET_B *1277:D 0
11 *1276:RESET_B *1296:A 0
12 *1276:RESET_B *132:31 0.000122801
13 *1276:RESET_B *138:32 0
14 *1276:RESET_B *312:10 0.000140912
*RES
1 *1027:Y *1276:RESET_B 16.025 
*END

*D_NET *88 0.000765715
*CONN
*I *1277:RESET_B I *D sky130_fd_sc_hd__dfrtp_1
*I *1023:Y O *D sky130_fd_sc_hd__nor2_1
*CAP
1 *1277:RESET_B 0.000169877
2 *1023:Y 0.000169877
3 *1277:RESET_B *1019:B 1.34503e-05
4 *1277:RESET_B *1025:A1 0.000166346
5 *1277:RESET_B *1028:A1 0.000124756
6 *1277:RESET_B *1343:A 0.000100301
7 *1277:RESET_B *134:76 2.11084e-05
*RES
1 *1023:Y *1277:RESET_B 10.325 
*END

*D_NET *89 0.00075168
*CONN
*I *1278:RESET_B I *D sky130_fd_sc_hd__dfrtp_1
*I *1019:Y O *D sky130_fd_sc_hd__nor2_1
*CAP
1 *1278:RESET_B 0.000189739
2 *1019:Y 0.000189739
3 *1278:RESET_B *1172:A 4.19006e-05
4 *1278:RESET_B *1174:A 9.33062e-05
5 *1278:RESET_B *1338:A 2.37234e-05
6 *1278:RESET_B *136:89 0.000140912
7 *1278:RESET_B *280:10 7.23602e-05
*RES
1 *1019:Y *1278:RESET_B 9.7175 
*END

*D_NET *90 0.000326908
*CONN
*I *1279:RESET_B I *D sky130_fd_sc_hd__dfrtp_1
*I *1015:Y O *D sky130_fd_sc_hd__nor2_1
*CAP
1 *1279:RESET_B 8.26387e-05
2 *1015:Y 8.26387e-05
3 *1279:RESET_B *1181:A 0
4 *1279:RESET_B *136:97 0.00016163
*RES
1 *1015:Y *1279:RESET_B 7.49 
*END

*D_NET *91 0.000150169
*CONN
*I *1280:RESET_B I *D sky130_fd_sc_hd__dfrtp_1
*I *1008:Y O *D sky130_fd_sc_hd__nor2_1
*CAP
1 *1280:RESET_B 6.17379e-05
2 *1008:Y 6.17379e-05
3 *1280:RESET_B *1011:A1 0
4 *1280:RESET_B *1039:A 2.66935e-05
5 *1280:RESET_B *1338:A 0
*RES
1 *1008:Y *1280:RESET_B 6.725 
*END

*D_NET *92 0.000910934
*CONN
*I *1236:D I *D sky130_fd_sc_hd__dfrtp_1
*I *1157:X O *D sky130_fd_sc_hd__a22o_1
*CAP
1 *1236:D 0.000383402
2 *1157:X 0.000383402
3 *1236:D *1045:C1 2.11084e-05
4 *1236:D *1157:A2 0
5 *1236:D *1284:A 6.14816e-05
6 *1236:D *154:20 6.15395e-05
7 *1236:D *193:50 0
*RES
1 *1157:X *1236:D 12.885 
*END

*D_NET *93 0.00053384
*CONN
*I *1308:A I *D sky130_fd_sc_hd__dlygate4sd3_1
*I *1155:X O *D sky130_fd_sc_hd__a21o_1
*CAP
1 *1308:A 6.19112e-05
2 *1155:X 6.19112e-05
3 *1308:A *1155:B1 0.00027299
4 *1308:A *1172:A 8.87364e-05
5 *1308:A *268:56 4.82919e-05
*RES
1 *1155:X *1308:A 5.72 
*END

*D_NET *94 0.00101164
*CONN
*I *1238:D I *D sky130_fd_sc_hd__dfrtp_1
*I *1154:X O *D sky130_fd_sc_hd__a31o_1
*CAP
1 *1238:D 0.000321658
2 *1154:X 0.000321658
3 *1238:D *1154:A2 4.98015e-05
4 *1238:D *1238:CLK 7.35729e-05
5 *1238:D *155:125 3.81296e-05
6 *1238:D *261:42 0.000206817
*RES
1 *1154:X *1238:D 12.99 
*END

*D_NET *95 0.0007038
*CONN
*I *1301:A I *D sky130_fd_sc_hd__dlygate4sd3_1
*I *1152:X O *D sky130_fd_sc_hd__a31o_1
*CAP
1 *1301:A 0.000107986
2 *1152:X 0.000107986
3 *1301:A *1151:A 0.000122337
4 *1301:A *1152:A2 1.33285e-05
5 *1301:A *1152:A3 0.000161529
6 *1301:A *1152:B1 2.16917e-05
7 *1301:A *1166:A 0.000168942
*RES
1 *1152:X *1301:A 6.44 
*END

*D_NET *96 0.000324374
*CONN
*I *1240:D I *D sky130_fd_sc_hd__dfrtp_1
*I *1150:X O *D sky130_fd_sc_hd__clkbuf_1
*CAP
1 *1240:D 0.000155693
2 *1150:X 0.000155693
3 *1240:D *1240:CLK 1.29885e-05
*RES
1 *1150:X *1240:D 5.045 
*END

*D_NET *97 0.000288128
*CONN
*I *1241:D I *D sky130_fd_sc_hd__dfrtp_4
*I *1147:X O *D sky130_fd_sc_hd__clkbuf_1
*CAP
1 *1241:D 9.36644e-05
2 *1147:X 9.36644e-05
3 *1241:D *1333:A 9.54399e-05
4 *1241:D *293:6 5.35969e-06
*RES
1 *1147:X *1241:D 8.775 
*END

*D_NET *98 0.000177155
*CONN
*I *1242:D I *D sky130_fd_sc_hd__dfrtp_4
*I *1143:X O *D sky130_fd_sc_hd__clkbuf_1
*CAP
1 *1242:D 6.40178e-05
2 *1143:X 6.40178e-05
3 *1242:D *1242:CLK 4.91189e-05
*RES
1 *1143:X *1242:D 8.58 
*END

*D_NET *99 0.000312883
*CONN
*I *1243:D I *D sky130_fd_sc_hd__dfrtp_4
*I *1139:X O *D sky130_fd_sc_hd__clkbuf_1
*CAP
1 *1243:D 0.000108755
2 *1139:X 0.000108755
3 *1243:D *267:73 6.66768e-05
4 *1243:D *267:79 2.86975e-05
*RES
1 *1139:X *1243:D 5.045 
*END

*D_NET *100 0.000512277
*CONN
*I *1244:D I *D sky130_fd_sc_hd__dfrtp_2
*I *1134:X O *D sky130_fd_sc_hd__clkbuf_1
*CAP
1 *1244:D 0.000178942
2 *1134:X 0.000178942
3 *1244:D *1149:S 5.2089e-05
4 *1244:D *267:56 8.53113e-06
5 *1244:D *267:69 9.37731e-05
*RES
1 *1134:X *1244:D 9.81 
*END

*D_NET *101 0.000547396
*CONN
*I *1245:D I *D sky130_fd_sc_hd__dfrtp_4
*I *1129:X O *D sky130_fd_sc_hd__clkbuf_1
*CAP
1 *1245:D 0.000155841
2 *1129:X 0.000155841
3 *1245:D *1245:CLK 5.85042e-05
4 *1245:D *192:48 0.000121817
5 *1245:D *197:38 5.53929e-05
*RES
1 *1129:X *1245:D 10.275 
*END

*D_NET *102 0.00027608
*CONN
*I *1246:D I *D sky130_fd_sc_hd__dfrtp_2
*I *1124:X O *D sky130_fd_sc_hd__clkbuf_1
*CAP
1 *1246:D 0.000124283
2 *1124:X 0.000124283
3 *1246:D *186:40 0
4 *1246:D *201:20 2.75145e-05
*RES
1 *1124:X *1246:D 9.03 
*END

*D_NET *103 0.000197412
*CONN
*I *1247:D I *D sky130_fd_sc_hd__dfrtp_1
*I *1119:X O *D sky130_fd_sc_hd__clkbuf_1
*CAP
1 *1247:D 3.06762e-05
2 *1119:X 3.06762e-05
3 *1247:D *1112:S 9.71067e-05
4 *1247:D *1178:A 3.89528e-05
*RES
1 *1119:X *1247:D 8.325 
*END

*D_NET *104 0.000307192
*CONN
*I *1248:D I *D sky130_fd_sc_hd__dfrtp_1
*I *1113:X O *D sky130_fd_sc_hd__clkbuf_1
*CAP
1 *1248:D 8.14035e-05
2 *1113:X 8.14035e-05
3 *1248:D *1178:A 3.67779e-05
4 *1248:D *1334:A 9.73442e-05
5 *1248:D *265:73 1.0263e-05
*RES
1 *1113:X *1248:D 8.67375 
*END

*D_NET *105 0.000236349
*CONN
*I *1249:D I *D sky130_fd_sc_hd__dfrtp_1
*I *1102:X O *D sky130_fd_sc_hd__xor2_1
*CAP
1 *1249:D 7.22535e-05
2 *1102:X 7.22535e-05
3 *1249:D *266:36 2.75145e-05
4 *1249:D *266:49 6.43271e-05
*RES
1 *1102:X *1249:D 4.685 
*END

*D_NET *106 0.00189206
*CONN
*I *1250:D I *D sky130_fd_sc_hd__dfrtp_4
*I *1101:Y O *D sky130_fd_sc_hd__o21ai_1
*CAP
1 *1250:D 0.00052542
2 *1101:Y 0.00052542
3 *1250:D *1094:A2 0.000312182
4 *1250:D *1101:A2 7.00889e-06
5 *1250:D *1250:CLK 2.68526e-05
6 *1250:D *1344:A 0.000122465
7 *1250:D *161:14 1.34503e-05
8 *1250:D *188:8 4.82919e-05
9 *1250:D *266:12 0
10 *1250:D *271:18 0.000310966
*RES
1 *1101:Y *1250:D 17.73 
*END

*D_NET *107 0.000953194
*CONN
*I *1251:D I *D sky130_fd_sc_hd__dfrtp_4
*I *1097:Y O *D sky130_fd_sc_hd__xnor2_1
*CAP
1 *1251:D 0.000450382
2 *1097:Y 0.000450382
3 *1251:D *1097:B 3.50152e-06
4 *1251:D *1251:CLK 4.89295e-05
*RES
1 *1097:Y *1251:D 9.875 
*END

*D_NET *108 0.00064984
*CONN
*I *1252:D I *D sky130_fd_sc_hd__dfrtp_1
*I *1091:Y O *D sky130_fd_sc_hd__o21ai_1
*CAP
1 *1252:D 0.000106214
2 *1091:Y 0.000106214
3 *1252:D *1072:A1 0.000274659
4 *1252:D *1252:CLK 0.00010804
5 *1252:D *250:99 5.47135e-05
*RES
1 *1091:Y *1252:D 6.41 
*END

*D_NET *109 0.000311479
*CONN
*I *1253:D I *D sky130_fd_sc_hd__dfrtp_1
*I *1089:X O *D sky130_fd_sc_hd__clkbuf_1
*CAP
1 *1253:D 0.000108155
2 *1089:X 0.000108155
3 *1253:D *1089:A 3.86529e-05
4 *1253:D *154:14 2.87867e-05
5 *1253:D *356:10 2.77283e-05
*RES
1 *1089:X *1253:D 9.225 
*END

*D_NET *110 0.000648093
*CONN
*I *1254:D I *D sky130_fd_sc_hd__dfrtp_1
*I *1086:Y O *D sky130_fd_sc_hd__o221ai_1
*CAP
1 *1254:D 0.000136217
2 *1086:Y 0.000136217
3 *1254:D *1076:A 0.000143266
4 *1254:D *1086:B2 0.000164686
5 *1254:D *1256:D 0
6 *1254:D *251:55 6.18754e-05
7 *1254:D *265:22 5.83121e-06
*RES
1 *1086:Y *1254:D 10.815 
*END

*D_NET *111 0.000536713
*CONN
*I *1255:D I *D sky130_fd_sc_hd__dfrtp_2
*I *1083:Y O *D sky130_fd_sc_hd__xnor2_1
*CAP
1 *1255:D 0.000159855
2 *1083:Y 0.000159855
3 *1255:D *1342:A 4.97815e-05
4 *1255:D *248:20 4.70343e-05
5 *1255:D *265:54 0.000120186
*RES
1 *1083:Y *1255:D 10.065 
*END

*D_NET *112 0.00141655
*CONN
*I *1256:D I *D sky130_fd_sc_hd__dfrtp_1
*I *1080:X O *D sky130_fd_sc_hd__o31a_1
*CAP
1 *1256:D 0.000600263
2 *1080:X 0.000600263
3 *1256:D *1076:A 0
4 *1256:D *1078:A2 0.000131187
5 *1256:D *1080:A2 8.48377e-05
6 *1256:D *175:10 0
7 *1254:D *1256:D 0
8 *1254:RESET_B *1256:D 0
*RES
1 *1080:X *1256:D 16.14 
*END

*D_NET *113 0.000372906
*CONN
*I *1257:D I *D sky130_fd_sc_hd__dfrtp_1
*I *1073:X O *D sky130_fd_sc_hd__clkbuf_1
*CAP
1 *1257:D 0.000124118
2 *1073:X 0.000124118
3 *1257:D *1072:A0 7.06865e-05
4 *1257:D *250:133 2.64607e-05
5 *1257:D *296:8 2.75229e-05
*RES
1 *1073:X *1257:D 9.01875 
*END

*D_NET *114 0.000269979
*CONN
*I *1258:D I *D sky130_fd_sc_hd__dfrtp_1
*I *1071:X O *D sky130_fd_sc_hd__clkbuf_1
*CAP
1 *1258:D 0.000111472
2 *1071:X 0.000111472
3 *1258:D *1071:A 4.70343e-05
*RES
1 *1071:X *1258:D 9.03 
*END

*D_NET *115 0.000491611
*CONN
*I *1259:D I *D sky130_fd_sc_hd__dfrtp_1
*I *1069:X O *D sky130_fd_sc_hd__clkbuf_1
*CAP
1 *1259:D 0.000186542
2 *1069:X 0.000186542
3 *1259:D *1214:A 0.000118527
4 *1259:D *313:41 0
*RES
1 *1069:X *1259:D 10.41 
*END

*D_NET *116 0.000814106
*CONN
*I *1260:D I *D sky130_fd_sc_hd__dfrtp_1
*I *1067:X O *D sky130_fd_sc_hd__clkbuf_1
*CAP
1 *1260:D 0.00023796
2 *1067:X 0.00023796
3 *1260:D *1064:A1 2.4997e-05
4 *1260:D *1064:S 5.13692e-05
5 *1260:D *1067:A 7.4027e-05
6 *1260:D *1261:CLK 6.93993e-05
7 *1260:D *1337:A 0
8 *1260:D *299:12 0.000109649
9 *1260:D *313:41 8.74345e-06
*RES
1 *1067:X *1260:D 12.06 
*END

*D_NET *117 0.00133453
*CONN
*I *1261:D I *D sky130_fd_sc_hd__dfrtp_1
*I *1065:X O *D sky130_fd_sc_hd__clkbuf_1
*CAP
1 *1261:D 0.000454506
2 *1065:X 0.000454506
3 *1261:D *1064:A0 2.59934e-06
4 *1261:D *1064:A1 0.000241483
5 *1261:D *1065:A 6.55777e-05
6 *1261:D *1337:A 6.55328e-05
7 odata[2] *1261:D 5.03301e-05
*RES
1 *1065:X *1261:D 13.86 
*END

*D_NET *118 0.000252532
*CONN
*I *1262:D I *D sky130_fd_sc_hd__dfrtp_1
*I *1063:X O *D sky130_fd_sc_hd__clkbuf_1
*CAP
1 *1262:D 9.95286e-05
2 *1063:X 9.95286e-05
3 *1262:D *265:26 5.34747e-05
*RES
1 *1063:X *1262:D 5.045 
*END

*D_NET *119 0.000265785
*CONN
*I *1263:D I *D sky130_fd_sc_hd__dfrtp_1
*I *1061:X O *D sky130_fd_sc_hd__clkbuf_1
*CAP
1 *1263:D 0.000122647
2 *1061:X 0.000122647
3 *1263:D *1061:A 2.04902e-05
4 *1263:D *1178:A 0
*RES
1 *1061:X *1263:D 9.03 
*END

*D_NET *120 0.000316632
*CONN
*I *1264:D I *D sky130_fd_sc_hd__dfrtp_4
*I *1058:X O *D sky130_fd_sc_hd__a41o_1
*CAP
1 *1264:D 7.82273e-05
2 *1058:X 7.82273e-05
3 *1264:D *1264:CLK 3.02303e-05
4 *1264:D *1266:CLK 3.68682e-05
5 *1264:D *156:93 9.30787e-05
*RES
1 *1058:X *1264:D 8.82375 
*END

*D_NET *121 0.000413125
*CONN
*I *1266:D I *D sky130_fd_sc_hd__dfrtp_1
*I *1052:X O *D sky130_fd_sc_hd__a32o_1
*CAP
1 *1266:D 0.00013698
2 *1052:X 0.00013698
3 *1266:D *1052:A1 8.34281e-06
4 *1266:D *1052:A3 2.75145e-05
5 *1266:D *1266:CLK 4.11281e-05
6 *1266:D *155:104 3.39064e-05
7 *1266:D *155:125 2.24423e-05
8 *1266:D *293:118 5.83121e-06
9 *1266:D *305:16 0
*RES
1 *1052:X *1266:D 9.63 
*END

*D_NET *122 0.000738615
*CONN
*I *1267:D I *D sky130_fd_sc_hd__dfrtp_1
*I *1045:X O *D sky130_fd_sc_hd__o211a_1
*CAP
1 *1267:D 0.000278339
2 *1045:X 0.000278339
3 *1267:D *1045:A1 7.60965e-05
4 *1267:D *1231:A 0
5 *1267:D *1233:A 0
6 *1267:D *263:32 0
7 *1267:D *359:91 0.000105841
8 *1267:RESET_B *1267:D 0
*RES
1 *1045:X *1267:D 11.85 
*END

*D_NET *123 0.000638916
*CONN
*I *1273:D I *D sky130_fd_sc_hd__dfrtp_1
*I *1041:X O *D sky130_fd_sc_hd__a22o_1
*CAP
1 *1273:D 0.000182719
2 *1041:X 0.000182719
3 *1273:D *1036:A1 2.49909e-05
4 *1273:D *1228:A 0.000114492
5 *1273:D *138:53 1.16578e-05
6 *1273:D *138:55 0.000122337
*RES
1 *1041:X *1273:D 10.17 
*END

*D_NET *124 0.000395174
*CONN
*I *1274:D I *D sky130_fd_sc_hd__dfrtp_1
*I *1038:X O *D sky130_fd_sc_hd__clkbuf_1
*CAP
1 *1274:D 0.000197587
2 *1038:X 0.000197587
3 *1274:D *1183:A 0
*RES
1 *1038:X *1274:D 9.825 
*END

*D_NET *125 0.00044357
*CONN
*I *1275:D I *D sky130_fd_sc_hd__dfrtp_1
*I *1034:X O *D sky130_fd_sc_hd__clkbuf_1
*CAP
1 *1275:D 0.000143977
2 *1034:X 0.000143977
3 *1275:D *1034:A 4.82919e-05
4 *1275:D *1167:B1 0
5 *1275:D *1219:A 0
6 *1275:D *1275:CLK 7.72855e-05
7 *1275:D *134:35 3.00381e-05
*RES
1 *1034:X *1275:D 9.735 
*END

*D_NET *126 0.000588369
*CONN
*I *1276:D I *D sky130_fd_sc_hd__dfrtp_1
*I *1030:X O *D sky130_fd_sc_hd__clkbuf_1
*CAP
1 *1276:D 0.000252168
2 *1030:X 0.000252168
3 *1276:D *1012:A 0
4 *1276:D *1045:A2 0
5 *1276:D *138:20 8.40325e-05
*RES
1 *1030:X *1276:D 10.755 
*END

*D_NET *127 0.00026223
*CONN
*I *1277:D I *D sky130_fd_sc_hd__dfrtp_1
*I *1026:X O *D sky130_fd_sc_hd__clkbuf_1
*CAP
1 *1277:D 0.000131115
2 *1026:X 0.000131115
3 *1277:D *1026:A 0
4 *1276:RESET_B *1277:D 0
*RES
1 *1026:X *1277:D 9.03 
*END

*D_NET *128 0.000408036
*CONN
*I *1278:D I *D sky130_fd_sc_hd__dfrtp_1
*I *1022:X O *D sky130_fd_sc_hd__clkbuf_1
*CAP
1 *1278:D 0.00012893
2 *1022:X 0.00012893
3 *1278:D *1021:A1 3.82323e-06
4 *1278:D *1022:A 1.90244e-05
5 *1278:D *1174:A 0.000127329
6 *1278:D *1181:A 0
*RES
1 *1022:X *1278:D 9.375 
*END

*D_NET *129 0.000502961
*CONN
*I *1279:D I *D sky130_fd_sc_hd__dfrtp_1
*I *1018:X O *D sky130_fd_sc_hd__clkbuf_1
*CAP
1 *1279:D 0.00014631
2 *1018:X 0.00014631
3 *1279:D *1015:B 4.35348e-05
4 *1279:D *1176:A 0.000166806
5 *1279:D *1283:A 0
*RES
1 *1018:X *1279:D 9.72 
*END

*D_NET *130 0.000300535
*CONN
*I *1280:D I *D sky130_fd_sc_hd__dfrtp_1
*I *1014:X O *D sky130_fd_sc_hd__clkbuf_1
*CAP
1 *1280:D 8.07581e-05
2 *1014:X 8.07581e-05
3 *1280:D *1039:A 2.04923e-05
4 *1280:D *1181:A 0.000118527
5 *1280:D *136:97 0
*RES
1 *1014:X *1280:D 9.03 
*END

*D_NET *131 0.012989
*CONN
*I *1224:A I *D sky130_fd_sc_hd__nor2_1
*I *1227:A I *D sky130_fd_sc_hd__nor2_1
*I *1005:A I *D sky130_fd_sc_hd__clkbuf_4
*I *1225:A I *D sky130_fd_sc_hd__nor2_1
*I *1184:A I *D sky130_fd_sc_hd__clkbuf_4
*I *1226:A I *D sky130_fd_sc_hd__nor2_1
*I *1223:A I *D sky130_fd_sc_hd__nor2_1
*I *1208:A I *D sky130_fd_sc_hd__clkbuf_4
*I *1196:A I *D sky130_fd_sc_hd__clkbuf_4
*I *1004:X O *D sky130_fd_sc_hd__buf_2
*CAP
1 *1224:A 0.000315063
2 *1227:A 0
3 *1005:A 0
4 *1225:A 1.88809e-05
5 *1184:A 0.000116029
6 *1226:A 2.2266e-05
7 *1223:A 1.72654e-05
8 *1208:A 0.000117556
9 *1196:A 0.000284553
10 *1004:X 0.000785007
11 *131:127 0.000622247
12 *131:110 0.000984303
13 *131:91 0.00109207
14 *131:76 0.000921716
15 *131:61 0.000678934
16 *131:46 0.000390624
17 *131:16 0.000530393
18 *131:14 0.0010396
19 *1184:A *1099:A 4.66108e-05
20 *1184:A *201:14 1.0183e-05
21 *1184:A *203:20 2.49909e-05
22 *1184:A *246:24 2.97561e-05
23 *1184:A *247:10 9.30787e-05
24 *1184:A *247:64 4.21314e-05
25 *1184:A *293:46 0
26 *1196:A *1103:A 1.7386e-05
27 *1196:A *1268:CLK 4.82919e-05
28 *1208:A *1268:CLK 0
29 *1208:A *133:34 0
30 *1208:A *250:8 2.65814e-06
31 *1208:A *250:75 9.54469e-05
32 *1224:A *1152:A2 0
33 *1224:A *1224:B 0.000278185
34 *1224:A *132:128 0.000161637
35 *1225:A *133:75 5.4155e-06
36 *1226:A *186:22 4.82919e-05
37 *131:14 *1199:A 0.000313846
38 *131:14 *1199:B 3.08022e-05
39 *131:14 *133:34 0
40 *131:14 *186:10 5.83121e-06
41 *131:14 *248:116 0
42 *131:14 *360:10 0
43 *131:14 *360:18 0.000180373
44 *131:16 *133:34 0
45 *131:16 *248:116 0
46 *131:61 *1223:B 8.65905e-05
47 *131:61 *133:34 8.53113e-06
48 *131:61 *133:49 0.00016605
49 *131:61 *293:46 0
50 *131:61 *360:10 0.000130072
51 *131:76 *1120:A2 7.58604e-05
52 *131:76 *1121:A1 2.15738e-05
53 *131:76 *133:49 2.97004e-06
54 *131:76 *133:66 7.3935e-05
55 *131:76 *133:75 5.30673e-05
56 *131:76 *186:40 0
57 *131:76 *201:14 0.000347917
58 *131:76 *258:8 0
59 *131:76 *293:46 0
60 *131:76 *360:10 6.18754e-05
61 *131:91 *133:75 0.000516642
62 *131:91 *201:14 0.000123225
63 *131:110 *1238:CLK 0.00025194
64 *131:110 *1272:CLK 7.55391e-05
65 *131:110 *132:20 0
66 *131:110 *133:75 3.77036e-05
67 *131:110 *133:90 0.00014263
68 *131:110 *261:42 0
69 *131:127 *1224:B 5.53249e-06
70 *131:127 *1272:CLK 0.000114017
71 *131:127 *1272:D 0.00011379
72 *131:127 *132:10 7.06865e-05
73 *131:127 *132:128 0.000604157
74 *131:127 *133:101 0.000201697
75 *1247:RESET_B *131:14 0.000117373
76 *1268:D *1196:A 4.99619e-05
77 *1268:SET_B *1208:A 0
78 *1268:SET_B *131:16 0
79 *1269:RESET_B *1224:A 0
80 *1270:RESET_B *131:110 2.75229e-05
81 *1271:RESET_B *131:76 3.89528e-05
82 *1272:RESET_B *131:127 9.78012e-05
*RES
1 *1004:X *131:14 17.955 
2 *131:14 *131:16 2.145 
3 *131:16 *1196:A 8.07 
4 *131:16 *1208:A 5.685 
5 *131:14 *131:46 3.83 
6 *131:46 *1223:A 1.96 
7 *131:46 *131:61 8.375 
8 *131:61 *1226:A 4.05 
9 *131:61 *131:76 11.435 
10 *131:76 *1184:A 8.195 
11 *131:76 *131:91 8.385 
12 *131:91 *1225:A 1.96 
13 *131:91 *131:110 12.155 
14 *131:110 *1005:A 3.6 
15 *131:110 *131:127 13.165 
16 *131:127 *1227:A 3.6 
17 *131:127 *1224:A 9.765 
*END

*D_NET *132 0.0165922
*CONN
*I *1035:A I *D sky130_fd_sc_hd__nor2_1
*I *1053:A I *D sky130_fd_sc_hd__nor2_1
*I *1023:A I *D sky130_fd_sc_hd__nor2_1
*I *1039:A I *D sky130_fd_sc_hd__nor2_1
*I *1008:A I *D sky130_fd_sc_hd__nor2_1
*I *1015:A I *D sky130_fd_sc_hd__nor2_1
*I *1031:A I *D sky130_fd_sc_hd__nor2_1
*I *1019:A I *D sky130_fd_sc_hd__nor2_1
*I *1027:A I *D sky130_fd_sc_hd__nor2_1
*I *1042:A I *D sky130_fd_sc_hd__nor2_1
*I *1005:X O *D sky130_fd_sc_hd__clkbuf_4
*CAP
1 *1035:A 0.000240659
2 *1053:A 5.44101e-05
3 *1023:A 3.86776e-05
4 *1039:A 0.000590182
5 *1008:A 3.4408e-05
6 *1015:A 2.0042e-05
7 *1031:A 0.00020999
8 *1019:A 0.000386679
9 *1027:A 0
10 *1042:A 1.88809e-05
11 *1005:X 8.96785e-05
12 *132:128 0.000785492
13 *132:93 0.000906977
14 *132:65 0.000383505
15 *132:59 0.000643552
16 *132:42 0.000802878
17 *132:38 0.000321252
18 *132:31 0.000327912
19 *132:20 0.00138723
20 *132:10 0.00169461
21 *1008:A *1008:B 8.65961e-05
22 *1015:A *1015:B 1.39263e-05
23 *1019:A *1019:B 6.39781e-05
24 *1019:A *1021:A1 2.49909e-05
25 *1023:A *134:76 8.40269e-05
26 *1031:A *1015:B 0.000287068
27 *1031:A *1028:A1 0.000625886
28 *1031:A *1033:A1 2.72785e-05
29 *1031:A *1176:A 3.73232e-05
30 *1031:A *134:50 0.000109549
31 *1031:A *134:60 4.43871e-06
32 *1035:A *1035:B 0.000244675
33 *1035:A *134:25 6.28843e-05
34 *1039:A *1011:A1 0.000106655
35 *1039:A *1280:CLK 4.98818e-05
36 *1039:A *1338:A 0
37 *1039:A *138:53 4.10476e-05
38 *1042:A *134:60 5.4155e-06
39 *1053:A *1176:A 0.000163199
40 *1053:A *134:14 4.82919e-05
41 *1053:A *134:25 8.8266e-05
42 *132:10 *133:101 2.87867e-05
43 *132:10 *359:81 8.57024e-05
44 *132:20 *1180:A 4.82919e-05
45 *132:20 *1181:A 0.000328001
46 *132:20 *1272:CLK 5.85534e-05
47 *132:20 *134:60 9.91257e-05
48 *132:20 *361:12 7.06796e-06
49 *132:31 *134:60 4.60584e-05
50 *132:31 *134:67 0.000426568
51 *132:31 *134:76 4.24364e-05
52 *132:38 *134:76 0.000200988
53 *132:42 *1028:A1 0.000598681
54 *132:42 *1181:A 0.000220885
55 *132:59 *1017:A0 0
56 *132:59 *1028:A1 0.000400975
57 *132:59 *1181:A 0.000201247
58 *132:65 *1015:B 2.71296e-05
59 *132:65 *1028:A1 0.000373074
60 *132:93 *1011:A1 0.000187766
61 *132:93 *1017:A0 0
62 *132:93 *1181:A 0.000131654
63 *132:93 *1338:A 0
64 *132:93 *281:10 0.000137571
65 *132:128 *1167:A1 0.000147058
66 *132:128 *1176:A 0.000158965
67 *132:128 *1272:D 4.92284e-05
68 *132:128 *133:101 5.11148e-06
69 *132:128 *134:14 0
70 *132:128 *134:25 9.01511e-05
71 oaddr[4] *132:93 0
72 *1224:A *132:128 0.000161637
73 *1265:D *132:128 5.72004e-05
74 *1265:SET_B *1035:A 6.73665e-05
75 *1272:RESET_B *132:128 0.000247664
76 *1276:RESET_B *132:31 0.000122801
77 *1280:D *1039:A 2.04923e-05
78 *1280:RESET_B *1039:A 2.66935e-05
79 *131:110 *132:20 0
80 *131:127 *132:10 7.06865e-05
81 *131:127 *132:128 0.000604157
*RES
1 *1005:X *132:10 5.265 
2 *132:10 *132:20 17.855 
3 *132:20 *1042:A 1.96 
4 *132:20 *132:31 5.64 
5 *132:31 *1027:A 1.6 
6 *132:31 *132:38 1.83 
7 *132:38 *132:42 8.99 
8 *132:42 *1019:A 8.115 
9 *132:42 *132:59 6.015 
10 *132:59 *132:65 5.915 
11 *132:65 *1031:A 13.745 
12 *132:65 *1015:A 2.0875 
13 *132:59 *132:93 6.48 
14 *132:93 *1008:A 4.395 
15 *132:93 *1039:A 11.22 
16 *132:38 *1023:A 2.395 
17 *132:10 *132:128 16.595 
18 *132:128 *1053:A 3.445 
19 *132:128 *1035:A 11.825 
*END

*D_NET *133 0.0143324
*CONN
*I *1197:A I *D sky130_fd_sc_hd__clkbuf_4
*I *1209:A I *D sky130_fd_sc_hd__clkbuf_4
*I *1224:B I *D sky130_fd_sc_hd__nor2_1
*I *1227:B I *D sky130_fd_sc_hd__nor2_1
*I *1007:A I *D sky130_fd_sc_hd__clkbuf_4
*I *1225:B I *D sky130_fd_sc_hd__nor2_1
*I *1185:A I *D sky130_fd_sc_hd__clkbuf_4
*I *1226:B I *D sky130_fd_sc_hd__nor2_1
*I *1223:B I *D sky130_fd_sc_hd__nor2_1
*I *1006:X O *D sky130_fd_sc_hd__buf_2
*CAP
1 *1197:A 0
2 *1209:A 0
3 *1224:B 0.000312003
4 *1227:B 0
5 *1007:A 0
6 *1225:B 0
7 *1185:A 0
8 *1226:B 0
9 *1223:B 3.27048e-05
10 *1006:X 0.000293817
11 *133:101 0.000625754
12 *133:90 0.000665058
13 *133:75 0.000818962
14 *133:66 0.000771065
15 *133:49 0.000549848
16 *133:34 0.00111941
17 *133:26 0.00137944
18 *133:14 0.000832986
19 *1224:B *134:14 0
20 *133:14 *1096:A 2.937e-05
21 *133:14 *1097:A 2.87867e-05
22 *133:14 *1097:B 0.000159511
23 *133:14 *1344:A 0
24 *133:14 *249:14 5.34747e-05
25 *133:14 *249:89 0.000147656
26 *133:26 *1206:A 0
27 *133:26 *248:20 6.76188e-05
28 *133:26 *248:35 3.00381e-05
29 *133:26 *249:14 0.000596097
30 *133:26 *249:33 0.00023635
31 *133:34 *1217:B 0.000139238
32 *133:34 *1281:A 0.000355772
33 *133:34 *165:28 0.000505498
34 *133:34 *248:20 0.000157968
35 *133:34 *249:33 0.000153474
36 *133:34 *250:18 0
37 *133:34 *250:36 3.57924e-05
38 *133:34 *250:75 0
39 *133:34 *251:55 0
40 *133:34 *293:46 0
41 *133:34 *301:23 8.53113e-06
42 *133:49 *293:46 0.000189299
43 *133:66 *293:46 0.000496622
44 *133:75 *192:16 0.000341386
45 *133:90 *1057:B1 0
46 *133:90 *247:22 0.000312276
47 *133:90 *359:81 0.000200615
48 *133:101 *1272:D 0.000202095
49 *133:101 *1288:A 1.79536e-05
50 *133:101 *134:14 0
51 *133:101 *247:22 7.40446e-05
52 *133:101 *261:42 0.000477568
53 *133:101 *359:81 8.40213e-05
54 *1208:A *133:34 0
55 *1224:A *1224:B 0.000278185
56 *1225:A *133:75 5.4155e-06
57 *1268:SET_B *133:34 9.16315e-05
58 *1269:RESET_B *1224:B 2.86975e-05
59 *1271:RESET_B *133:66 9.71067e-05
60 *131:14 *133:34 0
61 *131:16 *133:34 0
62 *131:61 *1223:B 8.65905e-05
63 *131:61 *133:34 8.53113e-06
64 *131:61 *133:49 0.00016605
65 *131:76 *133:49 2.97004e-06
66 *131:76 *133:66 7.3935e-05
67 *131:76 *133:75 5.30673e-05
68 *131:91 *133:75 0.000516642
69 *131:110 *133:75 3.77036e-05
70 *131:110 *133:90 0.00014263
71 *131:127 *1224:B 5.53249e-06
72 *131:127 *133:101 0.000201697
73 *132:10 *133:101 2.87867e-05
74 *132:128 *133:101 5.11148e-06
*RES
1 *1006:X *133:14 11.765 
2 *133:14 *133:26 14.335 
3 *133:26 *133:34 25.24 
4 *133:34 *1223:B 2.395 
5 *133:34 *133:49 7.775 
6 *133:49 *1226:B 3.6 
7 *133:49 *133:66 9.41 
8 *133:66 *1185:A 1.6 
9 *133:66 *133:75 10.125 
10 *133:75 *1225:B 1.6 
11 *133:75 *133:90 11.44 
12 *133:90 *1007:A 1.6 
13 *133:90 *133:101 11.06 
14 *133:101 *1227:B 3.6 
15 *133:101 *1224:B 9.765 
16 *133:26 *1209:A 1.6 
17 *133:14 *1197:A 1.6 
*END

*D_NET *134 0.0158843
*CONN
*I *1035:B I *D sky130_fd_sc_hd__nor2_1
*I *1039:B I *D sky130_fd_sc_hd__nor2_1
*I *1008:B I *D sky130_fd_sc_hd__nor2_1
*I *1015:B I *D sky130_fd_sc_hd__nor2_1
*I *1019:B I *D sky130_fd_sc_hd__nor2_1
*I *1023:B I *D sky130_fd_sc_hd__nor2_1
*I *1027:B I *D sky130_fd_sc_hd__nor2_1
*I *1042:B I *D sky130_fd_sc_hd__nor2_1
*I *1031:B I *D sky130_fd_sc_hd__nor2_1
*I *1053:B I *D sky130_fd_sc_hd__nor2_1
*I *1007:X O *D sky130_fd_sc_hd__clkbuf_4
*CAP
1 *1035:B 0.00020252
2 *1039:B 0.000213963
3 *1008:B 0.000754394
4 *1015:B 0.00023965
5 *1019:B 0.000370569
6 *1023:B 2.08101e-05
7 *1027:B 0
8 *1042:B 0
9 *1031:B 1.57356e-05
10 *1053:B 0
11 *1007:X 0.000827222
12 *134:119 0.0011832
13 *134:76 0.000532669
14 *134:67 0.000217164
15 *134:60 0.000830541
16 *134:50 0.00108258
17 *134:48 0.000416311
18 *134:35 0.00126216
19 *134:25 0.00147757
20 *134:14 0.000969053
21 *1015:B *1176:A 0.000313857
22 *1019:B *1028:A1 0
23 *1019:B *1338:A 0.000508724
24 *1019:B *1343:A 8.307e-05
25 *1035:B *1229:A 0
26 *1035:B *264:12 0
27 *1039:B *1228:A 0
28 *1039:B *138:49 0
29 *1039:B *138:53 0.00011964
30 *134:14 *1159:A3 0.00011379
31 *134:14 *1288:A 3.63701e-06
32 *134:14 *155:125 0.000233544
33 *134:14 *261:42 0.000170932
34 *134:14 *355:48 0
35 *134:14 *359:81 0.000124895
36 *134:35 *1275:CLK 3.83704e-05
37 *134:48 *1279:CLK 0
38 *134:50 *1283:A 0.000113199
39 *134:60 *1181:A 0.000239813
40 *134:60 *1233:A 0
41 *134:60 *1239:D 0
42 *134:60 *1283:A 0.00027725
43 *134:60 *1307:A 0
44 *134:60 *138:32 0
45 *134:60 *138:47 0
46 *134:67 *1181:A 0.000237205
47 *134:76 *1181:A 0.000162777
48 *134:76 *1343:A 8.8266e-05
49 *134:119 *1033:A1 6.34952e-05
50 *134:119 *1176:A 0
51 *134:119 *1228:A 0
52 *134:119 *1283:A 6.74079e-05
53 *134:119 *138:49 0
54 *1008:A *1008:B 8.65961e-05
55 *1015:A *1015:B 1.39263e-05
56 *1019:A *1019:B 6.39781e-05
57 *1023:A *134:76 8.40269e-05
58 *1031:A *1015:B 0.000287068
59 *1031:A *134:50 0.000109549
60 *1031:A *134:60 4.43871e-06
61 *1035:A *1035:B 0.000244675
62 *1035:A *134:25 6.28843e-05
63 *1042:A *134:60 5.4155e-06
64 *1053:A *134:14 4.82919e-05
65 *1053:A *134:25 8.8266e-05
66 *1224:B *134:14 0
67 *1239:RESET_B *134:60 4.05053e-05
68 *1265:D *1035:B 0
69 *1265:D *134:25 0
70 *1265:D *134:35 5.05437e-05
71 *1269:RESET_B *134:14 0
72 *1275:D *134:35 3.00381e-05
73 *1275:RESET_B *134:35 4.88317e-05
74 *1275:RESET_B *134:48 2.86975e-05
75 *1277:RESET_B *1019:B 1.34503e-05
76 *1277:RESET_B *134:76 2.11084e-05
77 *1279:D *1015:B 4.35348e-05
78 *132:20 *134:60 9.91257e-05
79 *132:31 *134:60 4.60584e-05
80 *132:31 *134:67 0.000426568
81 *132:31 *134:76 4.24364e-05
82 *132:38 *134:76 0.000200988
83 *132:65 *1015:B 2.71296e-05
84 *132:128 *134:14 0
85 *132:128 *134:25 9.01511e-05
86 *133:101 *134:14 0
*RES
1 *1007:X *134:14 20.81 
2 *134:14 *1053:B 1.6 
3 *134:14 *134:25 5.12 
4 *134:25 *134:35 15.35 
5 *134:35 *1031:B 1.96 
6 *134:35 *134:48 3.845 
7 *134:48 *134:50 2.4 
8 *134:50 *134:60 17.24 
9 *134:60 *1042:B 1.6 
10 *134:60 *134:67 3.9 
11 *134:67 *1027:B 1.6 
12 *134:67 *134:76 4.26 
13 *134:76 *1023:B 1.96 
14 *134:76 *1019:B 13.865 
15 *134:50 *1015:B 10.32 
16 *134:48 *134:119 4.185 
17 *134:119 *1008:B 13.74 
18 *134:119 *1039:B 7.32 
19 *134:25 *1035:B 8.55 
*END

*D_NET *135 0.00305674
*CONN
*I *1010:A I *D sky130_fd_sc_hd__clkbuf_4
*I *1075:A2 I *D sky130_fd_sc_hd__a32o_1
*I *1009:X O *D sky130_fd_sc_hd__or3_1
*CAP
1 *1010:A 8.86366e-05
2 *1075:A2 0.000630298
3 *1009:X 3.21472e-05
4 *135:6 0.000751082
5 *1010:A *1091:A2 8.53113e-06
6 *1010:A *266:53 3.86607e-05
7 *1075:A2 *1047:A 3.00381e-05
8 *1075:A2 *1055:A 8.57024e-05
9 *1075:A2 *1075:A3 0.0004256
10 *1075:A2 *1075:B1 2.24829e-05
11 *1075:A2 *1081:B 8.81641e-05
12 *1075:A2 *156:14 4.82863e-05
13 *1075:A2 *157:50 0.00014294
14 *1075:A2 *162:18 0.000185641
15 *1075:A2 *313:6 3.23663e-05
16 *1075:A2 *313:19 0.000423132
17 *135:6 *1047:A 2.30292e-05
*RES
1 *1009:X *135:6 2.05 
2 *135:6 *1075:A2 16.315 
3 *135:6 *1010:A 7.085 
*END

*D_NET *136 0.0191073
*CONN
*I *1016:S I *D sky130_fd_sc_hd__mux2_1
*I *1011:S I *D sky130_fd_sc_hd__mux2_1
*I *1040:B I *D sky130_fd_sc_hd__nor2_1
*I *1032:S I *D sky130_fd_sc_hd__mux2_1
*I *1036:S I *D sky130_fd_sc_hd__mux2_1
*I *1020:S I *D sky130_fd_sc_hd__mux2_1
*I *1028:S I *D sky130_fd_sc_hd__mux2_1
*I *1024:S I *D sky130_fd_sc_hd__mux2_1
*I *1090:A2 I *D sky130_fd_sc_hd__o21ai_1
*I *1091:A1 I *D sky130_fd_sc_hd__o21ai_1
*I *1010:X O *D sky130_fd_sc_hd__clkbuf_4
*CAP
1 *1016:S 2.08101e-05
2 *1011:S 9.87942e-05
3 *1040:B 1.17375e-05
4 *1032:S 0.000497978
5 *1036:S 9.02097e-05
6 *1020:S 0.000261598
7 *1028:S 7.37642e-05
8 *1024:S 2.37881e-05
9 *1090:A2 0
10 *1091:A1 2.16815e-05
11 *1010:X 9.39986e-05
12 *136:120 0.000599486
13 *136:103 0.000735857
14 *136:97 0.00192093
15 *136:89 0.00168884
16 *136:74 0.000908711
17 *136:55 0.000586397
18 *136:42 0.00157719
19 *136:29 0.00159016
20 *136:10 0.000419732
21 *1011:S *1011:A0 8.03337e-05
22 *1011:S *1326:A 3.04704e-05
23 *1020:S *1020:A1 0.000349879
24 *1020:S *1343:A 0.000217091
25 *1024:S *1030:A 4.99619e-05
26 *1024:S *138:20 8.65905e-05
27 *1028:S *1028:A1 1.08758e-05
28 *1032:S *1032:A0 8.64421e-05
29 *1032:S *1041:A1 0.000124895
30 *1032:S *1041:B1 8.53113e-06
31 *1032:S *1041:B2 0
32 *1032:S *1228:A 2.15594e-05
33 *1032:S *1294:A 7.33728e-05
34 *1032:S *138:59 0.000119101
35 *1032:S *276:8 2.43747e-05
36 *1036:S *1036:A0 1.7386e-05
37 *1036:S *1036:A1 0.000159259
38 *1036:S *1041:B2 0
39 *1036:S *1273:CLK 3.64998e-06
40 *1040:B *1041:A1 4.82919e-05
41 *1040:B *138:55 2.75229e-05
42 *1091:A1 *250:99 5.17381e-06
43 *1091:A1 *271:76 7.16048e-06
44 *136:10 *1091:A2 0.000138273
45 *136:10 *1349:A 8.75969e-05
46 *136:10 *271:72 8.73147e-06
47 *136:29 *1087:A 5.65627e-05
48 *136:29 *1090:A1 0.000347029
49 *136:29 *1091:B1 1.33293e-05
50 *136:29 *1349:A 9.35337e-05
51 *136:29 *271:72 1.37864e-05
52 *136:42 *1024:A0 0.000252282
53 *136:42 *1024:A1 0
54 *136:42 *1045:A2 0.000117116
55 *136:42 *1090:B1 0.000201404
56 *136:42 *1091:B1 8.58339e-06
57 *136:42 *1343:A 0
58 *136:42 *138:20 2.92496e-05
59 *136:55 *1025:A0 5.05437e-05
60 *136:55 *1028:A0 0.000298449
61 *136:55 *1343:A 6.45317e-05
62 *136:55 *138:20 3.57349e-05
63 *136:55 *298:40 0.000409132
64 *136:74 *1020:A1 0.000292989
65 *136:74 *1329:A 9.00699e-05
66 *136:74 *1343:A 0.000193538
67 *136:74 *279:10 0.000139933
68 *136:74 *298:40 0.000674296
69 *136:89 *1016:A1 0.000166935
70 *136:89 *1020:A1 2.42236e-05
71 *136:89 *1329:A 7.89767e-05
72 *136:89 *1330:A 7.4027e-05
73 *136:89 *1338:A 0
74 *136:89 *280:10 3.76596e-05
75 *136:97 *1011:A1 0
76 *136:97 *1013:A0 3.86607e-05
77 *136:97 *1013:S 0
78 *136:97 *1016:A0 1.33293e-05
79 *136:97 *1018:A 7.63125e-05
80 *136:97 *1181:A 0
81 *136:97 *1235:A 0.000295393
82 *136:97 *1346:A 0.000284976
83 *136:97 *138:47 0
84 *136:97 *138:49 0
85 *136:103 *1011:A0 0.000999472
86 *136:103 *1036:A0 2.67022e-05
87 *136:103 *1041:B2 0
88 *136:103 *1228:A 4.43777e-05
89 *136:103 *1273:CLK 7.4027e-05
90 *136:120 *1041:B2 0
91 *136:120 *1228:A 9.11618e-05
92 SDO *136:103 8.8266e-05
93 *1273:RESET_B *136:97 0
94 *1278:RESET_B *136:89 0.000140912
95 *1279:RESET_B *136:97 0.00016163
96 *1280:D *136:97 0
97 *1319:A *136:103 0
*RES
1 *1010:X *136:10 5.94 
2 *136:10 *1091:A1 3.98625 
3 *136:10 *136:29 8.06 
4 *136:29 *1090:A2 1.6 
5 *136:29 *136:42 20.89 
6 *136:42 *1024:S 2.395 
7 *136:42 *136:55 9.215 
8 *136:55 *1028:S 4.77 
9 *136:55 *136:74 10.095 
10 *136:74 *1020:S 9.915 
11 *136:74 *136:89 10.115 
12 *136:89 *136:97 26.155 
13 *136:97 *136:103 13.8575 
14 *136:103 *1036:S 5.7825 
15 *136:103 *136:120 2.0175 
16 *136:120 *1032:S 11.61 
17 *136:120 *1040:B 4.05 
18 *136:97 *1011:S 3.445 
19 *136:89 *1016:S 1.96 
*END

*D_NET *137 0.000219914
*CONN
*I *1013:A0 I *D sky130_fd_sc_hd__mux2_1
*I *1011:X O *D sky130_fd_sc_hd__mux2_1
*CAP
1 *1013:A0 8.00724e-05
2 *1011:X 8.00724e-05
3 *1013:A0 *1013:A1 2.11084e-05
4 *136:97 *1013:A0 3.86607e-05
*RES
1 *1011:X *1013:A0 8.52 
*END

*D_NET *138 0.0147462
*CONN
*I *1029:S I *D sky130_fd_sc_hd__mux2_1
*I *1025:S I *D sky130_fd_sc_hd__mux2_1
*I *1017:S I *D sky130_fd_sc_hd__mux2_1
*I *1013:S I *D sky130_fd_sc_hd__mux2_1
*I *1040:A I *D sky130_fd_sc_hd__nor2_1
*I *1041:A2 I *D sky130_fd_sc_hd__a22o_1
*I *1037:S I *D sky130_fd_sc_hd__mux2_1
*I *1033:S I *D sky130_fd_sc_hd__mux2_1
*I *1167:B1 I *D sky130_fd_sc_hd__o21a_1
*I *1021:S I *D sky130_fd_sc_hd__mux2_1
*I *1012:Y O *D sky130_fd_sc_hd__nand2_4
*CAP
1 *1029:S 3.01284e-05
2 *1025:S 4.45797e-05
3 *1017:S 0.000406783
4 *1013:S 0.000100858
5 *1040:A 1.77753e-05
6 *1041:A2 3.55506e-05
7 *1037:S 7.62252e-05
8 *1033:S 0.000137371
9 *1167:B1 0.000482631
10 *1021:S 6.0971e-05
11 *1012:Y 0.00066617
12 *138:63 0.000823311
13 *138:59 0.00048298
14 *138:55 0.000309116
15 *138:53 0.000481329
16 *138:49 0.000826397
17 *138:47 0.00126363
18 *138:32 0.00149666
19 *138:26 0.00104293
20 *138:20 0.000783709
21 *1013:S *1309:A 0
22 *1017:S *1017:A1 1.83847e-05
23 *1017:S *1018:A 0.000281768
24 *1017:S *281:10 1.83756e-05
25 *1021:S *1174:A 4.20934e-05
26 *1025:S *1351:A 3.95698e-05
27 *1029:S *1029:A1 5.83121e-06
28 *1033:S *1033:A1 0.000154924
29 *1033:S *264:29 1.52352e-05
30 *1037:S *1041:B2 0
31 *1037:S *1294:A 7.26629e-05
32 *1167:B1 *1033:A0 9.37731e-05
33 *1167:B1 *1167:A1 0.000124473
34 *1167:B1 *1219:A 0
35 *1167:B1 *1229:A 0
36 *1167:B1 *1265:CLK 0
37 *1167:B1 *1275:CLK 0
38 *1167:B1 *1285:A 3.38698e-05
39 *1167:B1 *264:12 0
40 *138:20 *1012:A 5.84828e-05
41 *138:20 *1024:A1 0.000199833
42 *138:20 *1025:A0 6.55328e-05
43 *138:20 *1029:A1 6.71882e-05
44 *138:20 *1030:A 0.000205918
45 *138:20 *1343:A 0
46 *138:26 *1025:A0 0.000335865
47 *138:26 *1343:A 0.000338233
48 *138:32 *1021:A0 0.000247567
49 *138:32 *1231:A 5.47531e-05
50 *138:32 *1232:A 0.000131441
51 *138:32 *1233:A 0.000426013
52 *138:32 *1351:A 0.000538218
53 *138:32 *263:32 3.67779e-05
54 *138:47 *1018:A 7.55391e-05
55 *138:47 *1021:A0 7.23533e-05
56 *138:47 *1152:B1 0
57 *138:47 *1176:A 7.63125e-05
58 *138:47 *1283:A 0
59 *138:49 *1176:A 0.000100308
60 *138:49 *1235:A 0.000118652
61 *138:49 *1309:A 0
62 *138:53 *1041:A1 9.1741e-05
63 *138:55 *1041:A1 5.41685e-05
64 *138:59 *1041:A1 2.11084e-05
65 *138:63 *1032:A0 0
66 *138:63 *1033:A0 0.000252282
67 *138:63 *1041:B1 0
68 *138:63 *1041:B2 0
69 *138:63 *1229:A 0
70 *138:63 *1294:A 3.09233e-05
71 *1024:S *138:20 8.65905e-05
72 *1032:S *138:59 0.000119101
73 *1039:A *138:53 4.10476e-05
74 *1039:B *138:49 0
75 *1039:B *138:53 0.00011964
76 *1040:B *138:55 2.75229e-05
77 *1265:D *1167:B1 0
78 *1273:D *138:53 1.16578e-05
79 *1273:D *138:55 0.000122337
80 *1273:RESET_B *1013:S 0
81 *1275:D *1167:B1 0
82 *1276:D *138:20 8.40325e-05
83 *1276:RESET_B *138:32 0
84 *134:60 *138:32 0
85 *134:60 *138:47 0
86 *134:119 *138:49 0
87 *136:42 *138:20 2.92496e-05
88 *136:55 *138:20 3.57349e-05
89 *136:97 *1013:S 0
90 *136:97 *138:47 0
91 *136:97 *138:49 0
*RES
1 *1012:Y *138:20 18.785 
2 *138:20 *138:26 7.93 
3 *138:26 *138:32 21.095 
4 *138:32 *1021:S 4.77 
5 *138:32 *138:47 8.775 
6 *138:47 *138:49 6.735 
7 *138:49 *138:53 8.66 
8 *138:53 *138:55 1.83 
9 *138:55 *138:59 5.555 
10 *138:59 *138:63 4.38 
11 *138:63 *1167:B1 11.82 
12 *138:63 *1033:S 5.7 
13 *138:59 *1037:S 5.235 
14 *138:55 *1041:A2 2.215 
15 *138:53 *1040:A 2.215 
16 *138:49 *1013:S 5.235 
17 *138:47 *1017:S 11.055 
18 *138:26 *1025:S 2.41 
19 *138:20 *1029:S 2.05 
*END

*D_NET *139 0.000159224
*CONN
*I *1014:A I *D sky130_fd_sc_hd__clkbuf_1
*I *1013:X O *D sky130_fd_sc_hd__mux2_1
*CAP
1 *1014:A 5.51471e-05
2 *1013:X 5.51471e-05
3 *1014:A *1013:A1 4.89295e-05
*RES
1 *1013:X *1014:A 4.265 
*END

*D_NET *140 0.000837444
*CONN
*I *1017:A0 I *D sky130_fd_sc_hd__mux2_1
*I *1016:X O *D sky130_fd_sc_hd__mux2_1
*CAP
1 *1017:A0 0.000215005
2 *1016:X 0.000215005
3 *1017:A0 *1028:A1 0
4 *1017:A0 *1338:A 0.000319167
5 *1017:A0 *1346:A 8.8266e-05
6 *132:59 *1017:A0 0
7 *132:93 *1017:A0 0
*RES
1 *1016:X *1017:A0 11.67 
*END

*D_NET *141 0.0012582
*CONN
*I *1018:A I *D sky130_fd_sc_hd__clkbuf_1
*I *1017:X O *D sky130_fd_sc_hd__mux2_1
*CAP
1 *1018:A 0.000412288
2 *1017:X 0.000412288
3 *1017:S *1018:A 0.000281768
4 *136:97 *1018:A 7.63125e-05
5 *138:47 *1018:A 7.55391e-05
*RES
1 *1017:X *1018:A 13.425 
*END

*D_NET *142 0.000844177
*CONN
*I *1021:A0 I *D sky130_fd_sc_hd__mux2_1
*I *1020:X O *D sky130_fd_sc_hd__mux2_1
*CAP
1 *1021:A0 0.000191946
2 *1020:X 0.000191946
3 *1021:A0 *1020:A0 3.31103e-05
4 *1021:A0 *1022:A 0
5 *1021:A0 *1174:A 0.000107254
6 *1021:A0 *1181:A 0
7 *138:32 *1021:A0 0.000247567
8 *138:47 *1021:A0 7.23533e-05
*RES
1 *1020:X *1021:A0 11.67 
*END

*D_NET *143 0.000269108
*CONN
*I *1022:A I *D sky130_fd_sc_hd__clkbuf_1
*I *1021:X O *D sky130_fd_sc_hd__mux2_1
*CAP
1 *1022:A 8.10675e-05
2 *1021:X 8.10675e-05
3 *1022:A *1021:A1 7.08554e-05
4 *1022:A *1174:A 1.70935e-05
5 *1022:A *1181:A 0
6 *1021:A0 *1022:A 0
7 *1278:D *1022:A 1.90244e-05
*RES
1 *1021:X *1022:A 8.955 
*END

*D_NET *144 0.00118032
*CONN
*I *1025:A0 I *D sky130_fd_sc_hd__mux2_1
*I *1024:X O *D sky130_fd_sc_hd__mux2_1
*CAP
1 *1025:A0 0.000250855
2 *1024:X 0.000250855
3 *1025:A0 *1024:A1 0
4 *1025:A0 *1028:A1 7.16437e-05
5 *1025:A0 *1029:A0 7.23602e-05
6 *1025:A0 *1296:A 0
7 *1025:A0 *1343:A 8.26614e-05
8 *136:55 *1025:A0 5.05437e-05
9 *138:20 *1025:A0 6.55328e-05
10 *138:26 *1025:A0 0.000335865
*RES
1 *1024:X *1025:A0 13.71 
*END

*D_NET *145 0.000780407
*CONN
*I *1026:A I *D sky130_fd_sc_hd__clkbuf_1
*I *1025:X O *D sky130_fd_sc_hd__mux2_1
*CAP
1 *1026:A 0.000229443
2 *1025:X 0.000229443
3 *1026:A *1028:A1 0.000321522
4 *1276:RESET_B *1026:A 0
5 *1277:D *1026:A 0
*RES
1 *1025:X *1026:A 12.015 
*END

*D_NET *146 0.000308729
*CONN
*I *1029:A0 I *D sky130_fd_sc_hd__mux2_1
*I *1028:X O *D sky130_fd_sc_hd__mux2_1
*CAP
1 *1029:A0 5.70275e-05
2 *1028:X 5.70275e-05
3 *1029:A0 *1029:A1 0.000122313
4 *1025:A0 *1029:A0 7.23602e-05
*RES
1 *1028:X *1029:A0 8.52 
*END

*D_NET *147 0.00085251
*CONN
*I *1030:A I *D sky130_fd_sc_hd__clkbuf_1
*I *1029:X O *D sky130_fd_sc_hd__mux2_1
*CAP
1 *1030:A 0.000298315
2 *1029:X 0.000298315
3 *1030:A *1024:A1 0
4 *1024:S *1030:A 4.99619e-05
5 *138:20 *1030:A 0.000205918
*RES
1 *1029:X *1030:A 12.6 
*END

*D_NET *148 0.000946289
*CONN
*I *1033:A0 I *D sky130_fd_sc_hd__mux2_1
*I *1032:X O *D sky130_fd_sc_hd__mux2_1
*CAP
1 *1033:A0 0.000239211
2 *1032:X 0.000239211
3 *1033:A0 *1041:B1 0
4 *1033:A0 *264:29 0.000121811
5 *1167:B1 *1033:A0 9.37731e-05
6 *138:63 *1033:A0 0.000252282
*RES
1 *1032:X *1033:A0 12.27 
*END

*D_NET *149 0.000497701
*CONN
*I *1034:A I *D sky130_fd_sc_hd__clkbuf_1
*I *1033:X O *D sky130_fd_sc_hd__mux2_1
*CAP
1 *1034:A 0.000136329
2 *1033:X 0.000136329
3 *1034:A *1230:A 4.00541e-06
4 *1034:A *264:29 0.000103658
5 *1034:A *264:38 6.90876e-05
6 *1275:D *1034:A 4.82919e-05
*RES
1 *1033:X *1034:A 6.095 
*END

*D_NET *150 0.000367211
*CONN
*I *1037:A0 I *D sky130_fd_sc_hd__mux2_1
*I *1036:X O *D sky130_fd_sc_hd__mux2_1
*CAP
1 *1037:A0 0.000158705
2 *1036:X 0.000158705
3 *1037:A0 *1037:A1 4.98015e-05
*RES
1 *1036:X *1037:A0 5.645 
*END

*D_NET *151 0.000697541
*CONN
*I *1038:A I *D sky130_fd_sc_hd__clkbuf_1
*I *1037:X O *D sky130_fd_sc_hd__mux2_1
*CAP
1 *1038:A 0.000348771
2 *1037:X 0.000348771
*RES
1 *1037:X *1038:A 8.405 
*END

*D_NET *152 0.000720037
*CONN
*I *1041:B1 I *D sky130_fd_sc_hd__a22o_1
*I *1040:Y O *D sky130_fd_sc_hd__nor2_1
*CAP
1 *1041:B1 0.000297104
2 *1040:Y 0.000297104
3 *1041:B1 *1041:A1 4.66108e-05
4 *1041:B1 *1228:A 7.06865e-05
5 *1032:S *1041:B1 8.53113e-06
6 *1033:A0 *1041:B1 0
7 *138:63 *1041:B1 0
*RES
1 *1040:Y *1041:B1 15.475 
*END

*D_NET *153 0.000423922
*CONN
*I *1044:A I *D sky130_fd_sc_hd__buf_2
*I *1043:X O *D sky130_fd_sc_hd__and3_1
*CAP
1 *1044:A 0.000111969
2 *1043:X 0.000111969
3 *1044:A *1043:C 5.35969e-06
4 *1044:A *154:14 5.02905e-05
5 *1044:A *270:75 9.50342e-06
6 *1044:A *270:92 0.000134831
*RES
1 *1043:X *1044:A 9.285 
*END

*D_NET *154 0.0138655
*CONN
*I *1045:C1 I *D sky130_fd_sc_hd__o211a_1
*I *1157:B2 I *D sky130_fd_sc_hd__a22o_1
*I *1158:A3 I *D sky130_fd_sc_hd__a31o_1
*I *1159:A4 I *D sky130_fd_sc_hd__a41o_1
*I *1148:B I *D sky130_fd_sc_hd__nand2_1
*I *1164:A2 I *D sky130_fd_sc_hd__a22o_1
*I *1160:B1 I *D sky130_fd_sc_hd__o32a_1
*I *1110:C1 I *D sky130_fd_sc_hd__o311a_1
*I *1044:X O *D sky130_fd_sc_hd__buf_2
*CAP
1 *1045:C1 0.000276799
2 *1157:B2 3.38389e-05
3 *1158:A3 0.000126555
4 *1159:A4 0.000141637
5 *1148:B 1.04051e-05
6 *1164:A2 0.000168326
7 *1160:B1 0
8 *1110:C1 0.000486553
9 *1044:X 0.000556683
10 *154:96 0.000973575
11 *154:77 0.000769261
12 *154:60 0.000234559
13 *154:53 9.76398e-05
14 *154:24 0.00185147
15 *154:20 0.00164437
16 *154:14 0.00116397
17 *1045:C1 *1157:A2 0
18 *1110:C1 *1100:B 0.000122582
19 *1110:C1 *1110:B1 4.89295e-05
20 *1110:C1 *1111:A1 0.000119569
21 *1110:C1 *1111:A2 8.79741e-05
22 *1110:C1 *1111:B1 0.00015635
23 *1110:C1 *1163:B 8.74345e-06
24 *1110:C1 *1164:B1 7.06865e-05
25 *1110:C1 *159:21 0.000235675
26 *1110:C1 *176:38 3.11927e-05
27 *1110:C1 *186:22 0.000122337
28 *1157:B2 *1157:A1 4.00541e-06
29 *1158:A3 *1056:A 0.000161101
30 *1158:A3 *1158:B1 4.06868e-05
31 *1158:A3 *163:8 3.66977e-05
32 *1158:A3 *352:20 0.000429306
33 *1159:A4 *1159:A2 9.30787e-05
34 *1159:A4 *1159:A3 2.79137e-05
35 *1159:A4 *1159:B1 0.000122801
36 *1159:A4 *355:25 0.000114807
37 *1159:A4 *355:48 2.32259e-05
38 *1164:A2 *1149:S 0.000126561
39 *1164:A2 *1160:A2 1.19928e-05
40 *1164:A2 *1160:A3 8.40269e-05
41 *1164:A2 *1160:B2 2.75145e-05
42 *1164:A2 *1164:B1 8.35068e-05
43 *1164:A2 *1270:CLK 4.66108e-05
44 *1164:A2 *1271:CLK 0.000307354
45 *1164:A2 *192:16 9.14049e-05
46 *1164:A2 *247:22 2.10152e-05
47 *1164:A2 *267:23 2.92496e-05
48 *154:14 *1072:A1 0.000232084
49 *154:14 *1157:B1 0
50 *154:14 *1205:A 0
51 *154:14 *1252:CLK 0.000119756
52 *154:14 *250:99 0.000121437
53 *154:14 *270:92 7.53596e-05
54 *154:20 *1157:A1 2.8185e-05
55 *154:20 *1157:B1 0.000123225
56 *154:24 *1154:A2 0.000385338
57 *154:24 *1157:A1 3.64998e-06
58 *154:24 *193:14 0.000224617
59 *154:53 *1100:B 0.000113732
60 *154:53 *1100:C 0.00010523
61 *154:53 *1164:B1 0.000249928
62 *154:53 *192:16 9.50342e-06
63 *154:60 *1160:B2 9.53428e-06
64 *154:77 *1148:A 4.66108e-05
65 *154:77 *1160:A2 2.30776e-05
66 *154:77 *1160:A3 1.16578e-05
67 *154:77 *230:6 3.66286e-05
68 *154:96 *1149:S 0
69 *154:96 *1160:A2 6.47326e-05
70 *154:96 *1164:B1 0
71 *154:96 *352:20 0.000237238
72 *154:96 *355:25 0
73 *1044:A *154:14 5.02905e-05
74 *1236:D *1045:C1 2.11084e-05
75 *1236:D *154:20 6.15395e-05
76 *1253:D *154:14 2.87867e-05
77 *1253:RESET_B *154:14 0
78 *1266:RESET_B *154:24 4.11729e-05
79 *1292:A *1158:A3 1.85674e-05
*RES
1 *1044:X *154:14 17.15 
2 *154:14 *154:20 4.71 
3 *154:20 *154:24 16.94 
4 *154:24 *1110:C1 18.055 
5 *154:24 *154:53 4.91 
6 *154:53 *1160:B1 1.6 
7 *154:53 *154:60 0.36 
8 *154:60 *1164:A2 11.12 
9 *154:60 *154:77 1.14 
10 *154:77 *1148:B 1.96 
11 *154:77 *154:96 16.03 
12 *154:96 *1159:A4 8.93 
13 *154:96 *1158:A3 6.115 
14 *154:20 *1157:B2 2.215 
15 *154:14 *1045:C1 5.86 
*END

*D_NET *155 0.0128372
*CONN
*I *1052:A2 I *D sky130_fd_sc_hd__a32o_1
*I *1159:A3 I *D sky130_fd_sc_hd__a41o_1
*I *1158:A2 I *D sky130_fd_sc_hd__a31o_1
*I *1154:A2 I *D sky130_fd_sc_hd__a31o_1
*I *1058:A3 I *D sky130_fd_sc_hd__a41o_1
*I *1165:B2 I *D sky130_fd_sc_hd__a2bb2o_1
*I *1057:A3 I *D sky130_fd_sc_hd__a31oi_1
*I *1079:A1 I *D sky130_fd_sc_hd__a31o_1
*I *1078:B1 I *D sky130_fd_sc_hd__a21oi_1
*I *1086:B2 I *D sky130_fd_sc_hd__o221ai_1
*I *1046:X O *D sky130_fd_sc_hd__clkbuf_4
*CAP
1 *1052:A2 0
2 *1159:A3 0.000264745
3 *1158:A2 0
4 *1154:A2 0.000150262
5 *1058:A3 2.09808e-05
6 *1165:B2 0.000264534
7 *1057:A3 0
8 *1079:A1 0.000130257
9 *1078:B1 0
10 *1086:B2 0.000334275
11 *1046:X 0.000111071
12 *155:125 0.000847504
13 *155:104 0.000845664
14 *155:96 0.000523332
15 *155:77 0.000532742
16 *155:55 0.00038332
17 *155:51 0.000321399
18 *155:18 0.000478888
19 *155:10 0.000681814
20 *155:6 0.000619557
21 *1079:A1 *1079:A3 2.75229e-05
22 *1079:A1 *1080:A3 0
23 *1079:A1 *1080:B1 1.08758e-05
24 *1079:A1 *161:16 3.00381e-05
25 *1079:A1 *161:39 1.12578e-05
26 *1086:B2 *1076:A 3.76596e-05
27 *1086:B2 *1076:B 0.000175236
28 *1086:B2 *1078:A2 4.99619e-05
29 *1086:B2 *251:55 0.000233231
30 *1159:A3 *1159:A2 0
31 *1159:A3 *1159:B1 4.42299e-05
32 *1159:A3 *1172:A 3.64226e-05
33 *1165:B2 *1057:B1 7.08884e-05
34 *1165:B2 *250:91 5.31419e-05
35 *155:6 *251:55 0.000125657
36 *155:6 *293:86 0.000458696
37 *155:6 *357:25 2.04902e-05
38 *155:10 *1076:B 7.4027e-05
39 *155:10 *1078:A2 0
40 *155:10 *174:30 0.000165774
41 *155:10 *174:32 0.000152814
42 *155:10 *176:21 0
43 *155:10 *272:14 6.68849e-05
44 *155:10 *273:42 0
45 *155:10 *274:44 0.000179709
46 *155:18 *1076:B 9.57187e-05
47 *155:18 *1078:A1 8.57024e-05
48 *155:18 *1078:A2 0.000124895
49 *155:18 *272:14 0.000139245
50 *155:18 *274:19 0
51 *155:51 *251:55 0.000114808
52 *155:51 *293:86 0.000417104
53 *155:55 *1057:A2 2.56866e-05
54 *155:55 *1057:B1 5.08304e-06
55 *155:55 *1058:A4 0
56 *155:55 *1101:A2 0
57 *155:55 *1221:B 6.36578e-05
58 *155:55 *251:61 2.09665e-05
59 *155:55 *274:44 0
60 *155:77 *293:86 0.000261885
61 *155:96 *1051:A1 4.76263e-05
62 *155:96 *1052:A3 2.42236e-05
63 *155:96 *1052:B1 7.44375e-05
64 *155:96 *1058:A1 4.66108e-05
65 *155:96 *1058:A2 8.73389e-06
66 *155:96 *1153:A3 0.000151569
67 *155:96 *1266:CLK 0
68 *155:96 *156:93 0.000173305
69 *155:96 *157:50 0.000456066
70 *155:96 *261:8 5.07083e-05
71 *155:96 *271:93 2.34423e-05
72 *155:96 *293:86 0.000145241
73 *155:96 *293:101 8.39141e-05
74 *155:104 *1052:A1 2.75145e-05
75 *155:104 *1052:B1 1.08758e-05
76 *155:104 *187:10 7.68414e-06
77 *155:104 *261:8 9.47454e-05
78 *155:104 *293:118 0
79 *155:125 *1057:B1 0
80 *155:125 *193:33 1.1561e-05
81 *155:125 *261:8 0.000155169
82 *155:125 *261:42 0
83 *155:125 *354:80 7.30547e-05
84 *155:125 *359:16 9.37731e-05
85 *1159:A4 *1159:A3 2.79137e-05
86 *1238:D *1154:A2 4.98015e-05
87 *1238:D *155:125 3.81296e-05
88 *1254:D *1086:B2 0.000164686
89 *1266:D *155:104 3.39064e-05
90 *1266:D *155:125 2.24423e-05
91 *1266:RESET_B *1165:B2 0.000117825
92 *134:14 *1159:A3 0.00011379
93 *134:14 *155:125 0.000233544
94 *154:24 *1154:A2 0.000385338
*RES
1 *1046:X *155:6 5.845 
2 *155:6 *155:10 10.52 
3 *155:10 *155:18 5.48 
4 *155:18 *1086:B2 12.845 
5 *155:18 *1078:B1 1.6 
6 *155:10 *1079:A1 5.805 
7 *155:6 *155:51 3.9 
8 *155:51 *155:55 4.4 
9 *155:55 *1057:A3 3.6 
10 *155:55 *1165:B2 8.535 
11 *155:51 *155:77 2.52 
12 *155:77 *1058:A3 1.96 
13 *155:77 *155:96 15.07 
14 *155:96 *155:104 4.28 
15 *155:104 *1154:A2 7.515 
16 *155:104 *155:125 11.925 
17 *155:125 *1158:A2 3.6 
18 *155:125 *1159:A3 7.5 
19 *155:96 *1052:A2 1.6 
*END

*D_NET *156 0.0106239
*CONN
*I *1087:D_N I *D sky130_fd_sc_hd__or4b_1
*I *1074:D1 I *D sky130_fd_sc_hd__o2111a_1
*I *1102:A I *D sky130_fd_sc_hd__xor2_1
*I *1094:A1 I *D sky130_fd_sc_hd__a21bo_1
*I *1054:B I *D sky130_fd_sc_hd__nand2b_2
*I *1162:C I *D sky130_fd_sc_hd__nand3_1
*I *1153:A1 I *D sky130_fd_sc_hd__o31a_1
*I *1049:A I *D sky130_fd_sc_hd__nor2_1
*I *1051:A2 I *D sky130_fd_sc_hd__a211o_1
*I *1057:A2 I *D sky130_fd_sc_hd__a31oi_1
*I *1047:X O *D sky130_fd_sc_hd__clkbuf_4
*CAP
1 *1087:D_N 0
2 *1074:D1 0.000290417
3 *1102:A 0.000143374
4 *1094:A1 0
5 *1054:B 0
6 *1162:C 0
7 *1153:A1 0.000120109
8 *1049:A 2.79448e-05
9 *1051:A2 0
10 *1057:A2 0.000305569
11 *1047:X 0.000234021
12 *156:108 0.000264472
13 *156:95 0.000195999
14 *156:93 0.000660217
15 *156:60 0.000287734
16 *156:51 0.000347598
17 *156:24 0.000542021
18 *156:18 7.19964e-05
19 *156:16 0.000642425
20 *156:14 0.000538083
21 *1049:A *1049:B 6.21961e-05
22 *1049:A *159:71 0
23 *1057:A2 *1057:A1 6.69608e-06
24 *1057:A2 *1057:B1 2.96541e-05
25 *1057:A2 *1101:A2 1.88656e-05
26 *1057:A2 *1162:A 8.7152e-06
27 *1057:A2 *236:14 0.000128133
28 *1057:A2 *251:61 2.80463e-05
29 *1074:D1 *1074:C1 7.07431e-05
30 *1074:D1 *1081:B 4.63425e-05
31 *1074:D1 *1286:A 0.000122797
32 *1074:D1 *157:27 0.000131168
33 *1074:D1 *313:19 0.00026538
34 *1102:A *1094:A2 0.00039046
35 *1102:A *1102:B 0.000121023
36 *1102:A *266:36 0.000122801
37 *1102:A *270:24 6.77501e-05
38 *1102:A *270:28 9.4087e-05
39 *1153:A1 *1049:B 1.19928e-05
40 *1153:A1 *1052:A3 4.66108e-05
41 *1153:A1 *1153:A2 1.07797e-05
42 *1153:A1 *1154:A3 0.000204312
43 *1153:A1 *1344:A 0.000155234
44 *1153:A1 *293:118 8.40269e-05
45 *1153:A1 *305:16 8.40269e-05
46 *1153:A1 *354:25 2.04748e-05
47 *156:14 *1162:B 8.35068e-05
48 *156:14 *1349:A 0.000438002
49 *156:14 *187:14 0
50 *156:14 *354:10 0.000332042
51 *156:16 *1058:B1 7.14699e-05
52 *156:16 *1162:B 0.000641286
53 *156:18 *1058:B1 0.00014294
54 *156:18 *1162:B 0.000153816
55 *156:24 *1057:B1 6.26392e-06
56 *156:24 *1058:B1 4.77719e-05
57 *156:24 *1162:B 4.94475e-05
58 *156:51 *1051:B1 8.23457e-05
59 *156:51 *1052:B1 2.39856e-05
60 *156:51 *1057:B1 0
61 *156:51 *1101:A2 0.000341692
62 *156:51 *1162:A 4.06518e-05
63 *156:51 *159:50 1.79536e-05
64 *156:51 *236:14 1.14673e-05
65 *156:60 *1049:B 1.34594e-05
66 *156:60 *1051:A1 2.75145e-05
67 *156:60 *1051:B1 2.5013e-05
68 *156:60 *1052:A3 4.82863e-05
69 *156:60 *1052:B1 4.82919e-05
70 *156:60 *354:25 6.07575e-06
71 *156:93 *1055:A 4.31106e-05
72 *156:93 *1058:B1 2.03861e-05
73 *156:93 *1266:CLK 0
74 *156:93 *1344:A 0
75 *156:93 *157:50 0.000135559
76 *156:93 *162:18 5.34569e-05
77 *156:93 *271:93 9.14049e-05
78 *156:93 *293:101 6.58955e-06
79 *156:95 *1055:A 0.000139238
80 *156:95 *1344:A 0
81 *156:108 *1055:A 1.15688e-05
82 *156:108 *1344:A 0
83 *156:108 *270:32 5.39961e-05
84 *156:108 *270:52 7.06865e-05
85 *1075:A2 *156:14 4.82863e-05
86 *1264:D *156:93 9.30787e-05
87 *155:55 *1057:A2 2.56866e-05
88 *155:96 *156:93 0.000173305
*RES
1 *1047:X *156:14 12.05 
2 *156:14 *156:16 5.97 
3 *156:16 *156:18 1.485 
4 *156:18 *156:24 2.81 
5 *156:24 *1057:A2 6.71433 
6 *156:24 *156:51 6.98 
7 *156:51 *1051:A2 1.6 
8 *156:51 *156:60 2.79 
9 *156:60 *1049:A 2.665 
10 *156:60 *1153:A1 9.425 
11 *156:18 *1162:C 1.6 
12 *156:16 *156:93 8.48 
13 *156:93 *156:95 1.635 
14 *156:95 *1054:B 3.6 
15 *156:95 *156:108 4.34 
16 *156:108 *1094:A1 1.6 
17 *156:108 *1102:A 6.535 
18 *156:93 *1074:D1 12.895 
19 *156:14 *1087:D_N 1.6 
*END

*D_NET *157 0.00706782
*CONN
*I *1153:A3 I *D sky130_fd_sc_hd__o31a_1
*I *1051:C1 I *D sky130_fd_sc_hd__a211o_1
*I *1049:B I *D sky130_fd_sc_hd__nor2_1
*I *1075:A3 I *D sky130_fd_sc_hd__a32o_1
*I *1096:B I *D sky130_fd_sc_hd__and2_1
*I *1048:Y O *D sky130_fd_sc_hd__nand2_2
*CAP
1 *1153:A3 0.00010866
2 *1051:C1 0
3 *1049:B 5.68167e-05
4 *1075:A3 0.000336746
5 *1096:B 9.46626e-05
6 *1048:Y 3.62863e-05
7 *157:52 5.68167e-05
8 *157:50 0.000621714
9 *157:27 0.00146389
10 *157:8 0.000745043
11 *1049:B *1051:B1 3.09774e-05
12 *1049:B *354:25 0.000120655
13 *1075:A3 *1075:B1 4.00541e-06
14 *1075:A3 *313:6 1.33293e-05
15 *1096:B *1096:A 3.29217e-05
16 *1096:B *274:8 0
17 *1153:A3 *1052:A1 8.23457e-05
18 *1153:A3 *1052:A3 9.30717e-05
19 *1153:A3 *187:10 0.00018955
20 *1153:A3 *293:101 3.59971e-05
21 *1153:A3 *293:118 2.75025e-05
22 *1153:A3 *305:16 4.66108e-05
23 *157:8 *1074:B1 2.68464e-05
24 *157:27 *1058:A4 7.06347e-05
25 *157:27 *1074:B1 0
26 *157:27 *1075:A1 0
27 *157:27 *1081:B 1.31828e-05
28 *157:27 *1096:A 9.09788e-06
29 *157:27 *1097:A 0.00018637
30 *157:27 *1101:A2 0.000229658
31 *157:27 *1101:B1 2.51754e-05
32 *157:27 *274:8 0
33 *157:27 *274:32 0
34 *157:50 *162:18 8.53113e-06
35 *157:50 *250:91 1.35862e-05
36 *157:50 *261:8 0.000700104
37 *157:50 *293:101 5.64768e-05
38 *1049:A *1049:B 6.21961e-05
39 *1074:D1 *157:27 0.000131168
40 *1075:A2 *1075:A3 0.0004256
41 *1075:A2 *157:50 0.00014294
42 *1153:A1 *1049:B 1.19928e-05
43 *155:96 *1153:A3 0.000151569
44 *155:96 *157:50 0.000456066
45 *156:60 *1049:B 1.34594e-05
46 *156:93 *157:50 0.000135559
*RES
1 *1048:Y *157:8 4.05 
2 *157:8 *1096:B 5.235 
3 *157:8 *157:27 12.89 
4 *157:27 *1075:A3 6.46 
5 *157:27 *157:50 18.27 
6 *157:50 *157:52 2 
7 *157:52 *1049:B 3.46 
8 *157:52 *1051:C1 1.6 
9 *157:50 *1153:A3 7.32 
*END

*D_NET *158 0.00156202
*CONN
*I *1154:A3 I *D sky130_fd_sc_hd__a31o_1
*I *1052:A3 I *D sky130_fd_sc_hd__a32o_1
*I *1049:Y O *D sky130_fd_sc_hd__nor2_1
*CAP
1 *1154:A3 0.000216517
2 *1052:A3 0.00012513
3 *1049:Y 0
4 *158:4 0.000341647
5 *1052:A3 *1052:A1 4.82863e-05
6 *1052:A3 *293:101 0.000132842
7 *1154:A3 *1153:A2 9.14049e-05
8 *1154:A3 *1154:A1 0.000101564
9 *1154:A3 *1266:CLK 5.55458e-05
10 *1154:A3 *354:25 5.062e-06
11 *1153:A1 *1052:A3 4.66108e-05
12 *1153:A1 *1154:A3 0.000204312
13 *1153:A3 *1052:A3 9.30717e-05
14 *1266:D *1052:A3 2.75145e-05
15 *155:96 *1052:A3 2.42236e-05
16 *156:60 *1052:A3 4.82863e-05
*RES
1 *1049:Y *158:4 1.6 
2 *158:4 *1052:A3 8.48 
3 *158:4 *1154:A3 10.16 
*END

*D_NET *159 0.00747826
*CONN
*I *1051:B1 I *D sky130_fd_sc_hd__a211o_1
*I *1156:B1 I *D sky130_fd_sc_hd__o211a_1
*I *1087:B I *D sky130_fd_sc_hd__or4b_1
*I *1090:A1 I *D sky130_fd_sc_hd__o21ai_1
*I *1153:A2 I *D sky130_fd_sc_hd__o31a_1
*I *1111:B1 I *D sky130_fd_sc_hd__o21a_4
*I *1100:A I *D sky130_fd_sc_hd__and3_2
*I *1050:Y O *D sky130_fd_sc_hd__inv_2
*CAP
1 *1051:B1 8.61829e-05
2 *1156:B1 0
3 *1087:B 0
4 *1090:A1 0.000190316
5 *1153:A2 7.84581e-05
6 *1111:B1 0.000122403
7 *1100:A 5.61629e-05
8 *1050:Y 3.52786e-05
9 *159:77 0.000272252
10 *159:71 0.000322134
11 *159:50 0.000826777
12 *159:38 0.00114252
13 *159:21 0.000856504
14 *159:8 0.000277329
15 *1051:B1 *1051:A1 4.82863e-05
16 *1051:B1 *1160:A2 0.000181869
17 *1051:B1 *354:25 4.66108e-05
18 *1090:A1 *1087:A 8.49205e-05
19 *1090:A1 *1091:B1 4.29198e-05
20 *1090:A1 *1162:B 8.57024e-05
21 *1090:A1 *270:92 9.91965e-05
22 *1100:A *1100:C 3.60024e-06
23 *1100:A *359:26 3.35139e-05
24 *1153:A2 *1154:A1 0.000171496
25 *1153:A2 *1344:A 2.10676e-05
26 *1153:A2 *187:10 4.66108e-05
27 *1153:A2 *305:16 4.66108e-05
28 *159:8 *186:22 4.77719e-05
29 *159:38 *1160:A2 0.00030655
30 *159:50 *1057:B1 0
31 *159:71 *1156:A1 9.72742e-06
32 *159:71 *1156:A2 9.53428e-06
33 *159:71 *1156:C1 0.000235339
34 *159:71 *354:25 5.60333e-05
35 *159:77 *1349:A 0.000251595
36 *159:77 *310:12 4.61595e-05
37 *159:77 *354:10 0.00011852
38 *159:77 *354:21 0.000139933
39 *159:77 *354:59 5.4003e-05
40 *1049:A *159:71 0
41 *1049:B *1051:B1 3.09774e-05
42 *1110:C1 *1111:B1 0.00015635
43 *1110:C1 *159:21 0.000235675
44 *1153:A1 *1153:A2 1.07797e-05
45 *1154:A3 *1153:A2 9.14049e-05
46 *1268:D *1111:B1 2.68464e-05
47 *136:29 *1090:A1 0.000347029
48 *156:51 *1051:B1 8.23457e-05
49 *156:51 *159:50 1.79536e-05
50 *156:60 *1051:B1 2.5013e-05
*RES
1 *1050:Y *159:8 4.05 
2 *159:8 *1100:A 4.725 
3 *159:8 *159:21 3.36 
4 *159:21 *1111:B1 5.94 
5 *159:21 *159:38 10.4 
6 *159:38 *159:50 4.47797 
7 *159:50 *1153:A2 6.0675 
8 *159:50 *159:71 6.62 
9 *159:71 *159:77 7.42 
10 *159:77 *1090:A1 6.82 
11 *159:77 *1087:B 1.6 
12 *159:71 *1156:B1 1.6 
13 *159:38 *1051:B1 4.135 
*END

*D_NET *160 0.000615258
*CONN
*I *1052:B1 I *D sky130_fd_sc_hd__a32o_1
*I *1051:X O *D sky130_fd_sc_hd__a211o_1
*CAP
1 *1052:B1 0.000155695
2 *1051:X 0.000155695
3 *1052:B1 *187:10 7.03925e-06
4 *1052:B1 *261:8 0.000139238
5 *155:96 *1052:B1 7.44375e-05
6 *155:104 *1052:B1 1.08758e-05
7 *156:51 *1052:B1 2.39856e-05
8 *156:60 *1052:B1 4.82919e-05
*RES
1 *1051:X *1052:B1 10.1775 
*END

*D_NET *161 0.00576077
*CONN
*I *1055:A I *D sky130_fd_sc_hd__inv_2
*I *1101:A1 I *D sky130_fd_sc_hd__o21ai_1
*I *1085:A1 I *D sky130_fd_sc_hd__a21o_1
*I *1082:A2 I *D sky130_fd_sc_hd__a31o_1
*I *1076:A I *D sky130_fd_sc_hd__nand2_1
*I *1079:A2 I *D sky130_fd_sc_hd__a31o_1
*I *1054:Y O *D sky130_fd_sc_hd__nand2b_2
*CAP
1 *1055:A 0.000140885
2 *1101:A1 0
3 *1085:A1 0.000235717
4 *1082:A2 8.12806e-05
5 *1076:A 0.000129512
6 *1079:A2 0
7 *1054:Y 0
8 *161:50 0.000379213
9 *161:39 0.000659464
10 *161:16 0.000762913
11 *161:14 0.000441035
12 *161:4 0.000286744
13 *1055:A *1101:A2 1.61461e-05
14 *1055:A *1287:A 7.66908e-05
15 *1055:A *162:18 8.53113e-06
16 *1055:A *261:8 5.38986e-05
17 *1055:A *270:52 8.65961e-05
18 *1055:A *313:19 4.66826e-05
19 *1076:A *1086:A1 0.000115464
20 *1076:A *175:10 9.54399e-05
21 *1076:A *179:14 8.09021e-06
22 *1076:A *251:55 3.90266e-05
23 *1082:A2 *1082:A3 4.47125e-05
24 *1082:A2 *1082:B1 2.66875e-05
25 *1082:A2 *273:38 0
26 *1085:A1 *1082:A1 2.1772e-05
27 *1085:A1 *1082:A3 8.064e-05
28 *1085:A1 *1085:B1 8.64421e-05
29 *1085:A1 *1086:A1 9.20028e-05
30 *1085:A1 *165:28 8.53113e-06
31 *1085:A1 *251:55 1.24035e-05
32 *161:14 *1101:A2 0.000162776
33 *161:14 *270:32 1.22762e-05
34 *161:14 *270:52 2.25075e-05
35 *161:16 *1079:B1 0.000124895
36 *161:39 *1079:A3 1.16578e-05
37 *161:39 *1081:C_N 0.00016063
38 *161:39 *1286:A 0.000231247
39 *161:39 *174:32 9.54399e-05
40 *161:39 *179:14 0.000121023
41 *161:39 *272:14 4.00541e-06
42 *161:39 *274:32 0
43 *161:50 *1086:A1 0.000187071
44 *161:50 *251:55 7.5431e-05
45 *1075:A2 *1055:A 8.57024e-05
46 *1079:A1 *161:16 3.00381e-05
47 *1079:A1 *161:39 1.12578e-05
48 *1086:B2 *1076:A 3.76596e-05
49 *1250:D *161:14 1.34503e-05
50 *1254:D *1076:A 0.000143266
51 *1256:D *1076:A 0
52 *156:93 *1055:A 4.31106e-05
53 *156:95 *1055:A 0.000139238
54 *156:108 *1055:A 1.15688e-05
*RES
1 *1054:Y *161:4 1.6 
2 *161:4 *161:14 6.88 
3 *161:14 *161:16 4.935 
4 *161:16 *1079:A2 1.6 
5 *161:16 *161:39 14.625 
6 *161:39 *1076:A 7.275 
7 *161:39 *161:50 2.145 
8 *161:50 *1082:A2 5.115 
9 *161:50 *1085:A1 7.26 
10 *161:14 *1101:A1 1.6 
11 *161:4 *1055:A 9.95 
*END

*D_NET *162 0.00357898
*CONN
*I *1058:A4 I *D sky130_fd_sc_hd__a41o_1
*I *1081:B I *D sky130_fd_sc_hd__or3b_1
*I *1055:Y O *D sky130_fd_sc_hd__inv_2
*CAP
1 *1058:A4 0.000226527
2 *1081:B 0.000428467
3 *1055:Y 0.000185938
4 *162:18 0.000840932
5 *1058:A4 *1101:A2 0.000246333
6 *1081:B *1075:B2 0.000162409
7 *1081:B *1286:A 0.000692128
8 *1081:B *313:19 0.000158543
9 *162:18 *261:8 5.37079e-05
10 *162:18 *313:19 0.000109506
11 *1055:A *162:18 8.53113e-06
12 *1074:D1 *1081:B 4.63425e-05
13 *1075:A2 *1081:B 8.81641e-05
14 *1075:A2 *162:18 0.000185641
15 *155:55 *1058:A4 0
16 *156:93 *162:18 5.34569e-05
17 *157:27 *1058:A4 7.06347e-05
18 *157:27 *1081:B 1.31828e-05
19 *157:50 *162:18 8.53113e-06
*RES
1 *1055:Y *162:18 9.305 
2 *162:18 *1081:B 15.395 
3 *162:18 *1058:A4 10.34 
*END

*D_NET *163 0.00364214
*CONN
*I *1159:A2 I *D sky130_fd_sc_hd__a41o_1
*I *1057:B1 I *D sky130_fd_sc_hd__a31oi_1
*I *1056:Y O *D sky130_fd_sc_hd__inv_2
*CAP
1 *1159:A2 9.46268e-05
2 *1057:B1 0.00100884
3 *1056:Y 9.19224e-05
4 *163:8 0.00119539
5 *1057:B1 *1057:A1 6.35427e-06
6 *1057:B1 *1058:B1 9.4742e-06
7 *1057:B1 *1101:A2 0
8 *1057:B1 *1162:A 1.0911e-05
9 *1057:B1 *1299:A 0.000228508
10 *1057:B1 *193:33 0
11 *1057:B1 *236:14 1.98775e-05
12 *1057:B1 *355:10 4.50017e-05
13 *1057:B1 *355:25 0.000295152
14 *1057:B1 *359:16 0
15 *1159:A2 *354:80 0
16 *1159:A2 *355:25 4.74304e-05
17 *1057:A2 *1057:B1 2.96541e-05
18 *1158:A3 *163:8 3.66977e-05
19 *1159:A3 *1159:A2 0
20 *1159:A4 *1159:A2 9.30787e-05
21 *1165:B2 *1057:B1 7.08884e-05
22 *1266:RESET_B *1057:B1 0.000187032
23 *1270:RESET_B *1057:B1 0.000159964
24 *133:90 *1057:B1 0
25 *155:55 *1057:B1 5.08304e-06
26 *155:125 *1057:B1 0
27 *156:24 *1057:B1 6.26392e-06
28 *156:51 *1057:B1 0
29 *159:50 *1057:B1 0
*RES
1 *1056:Y *163:8 4.74 
2 *163:8 *1057:B1 23.5125 
3 *163:8 *1159:A2 5.745 
*END

*D_NET *164 0.00151532
*CONN
*I *1058:B1 I *D sky130_fd_sc_hd__a41o_1
*I *1057:Y O *D sky130_fd_sc_hd__a31oi_1
*CAP
1 *1058:B1 0.000398456
2 *1057:Y 0.000398456
3 *1058:B1 *1057:A1 2.8501e-05
4 *1058:B1 *1058:A1 4.66108e-05
5 *1058:B1 *1058:A2 4.66826e-05
6 *1058:B1 *1162:B 1.52352e-05
7 *1058:B1 *271:76 2.05056e-05
8 *1058:B1 *271:93 7.06865e-05
9 *1058:B1 *293:101 0.000198143
10 *1057:B1 *1058:B1 9.4742e-06
11 *156:16 *1058:B1 7.14699e-05
12 *156:18 *1058:B1 0.00014294
13 *156:24 *1058:B1 4.77719e-05
14 *156:93 *1058:B1 2.03861e-05
*RES
1 *1057:Y *1058:B1 13.62 
*END

*D_NET *165 0.00583438
*CONN
*I *1325:A I *D sky130_fd_sc_hd__buf_2
*I *1060:S I *D sky130_fd_sc_hd__mux2_1
*I *1062:S I *D sky130_fd_sc_hd__mux2_1
*I *1059:Y O *D sky130_fd_sc_hd__nor3b_2
*CAP
1 *1325:A 0.000200999
2 *1060:S 0
3 *1062:S 0.00027681
4 *1059:Y 0.000178228
5 *165:28 0.00110747
6 *165:8 0.00120988
7 *1062:S *249:33 0
8 *1062:S *265:37 0
9 *1325:A *1075:A1 0.000274947
10 *1325:A *1086:A1 0
11 *1325:A *176:21 5.18317e-06
12 *1325:A *176:38 7.39039e-05
13 *165:8 *1084:A 2.4997e-05
14 *165:8 *176:38 0
15 *165:8 *251:55 0
16 *165:8 *293:46 0
17 *165:8 *293:86 5.02217e-05
18 *165:8 *357:25 3.39151e-05
19 *165:8 *357:31 3.85797e-05
20 *165:28 *1060:A1 0.000238137
21 *165:28 *1082:A1 9.33661e-05
22 *165:28 *1082:A3 8.40269e-05
23 *165:28 *1083:B 0.000570515
24 *165:28 *1084:A 9.50342e-06
25 *165:28 *1086:A1 7.41754e-05
26 *165:28 *248:20 0.000500538
27 *165:28 *249:33 0
28 *165:28 *250:18 0
29 *165:28 *301:23 0.000274952
30 odata[6] *1062:S 0
31 *1085:A1 *165:28 8.53113e-06
32 *133:34 *165:28 0.000505498
*RES
1 *1059:Y *165:8 7.275 
2 *165:8 *165:28 28.035 
3 *165:28 *1062:S 9.785 
4 *165:28 *1060:S 1.6 
5 *165:8 *1325:A 12.01 
*END

*D_NET *166 0.000147101
*CONN
*I *1302:A I *D sky130_fd_sc_hd__dlygate4sd3_1
*I *1060:X O *D sky130_fd_sc_hd__mux2_1
*CAP
1 *1302:A 7.35505e-05
2 *1060:X 7.35505e-05
3 *1302:A *1060:A0 0
*RES
1 *1060:X *1302:A 4.355 
*END

*D_NET *167 0.000323241
*CONN
*I *1063:A I *D sky130_fd_sc_hd__clkbuf_1
*I *1062:X O *D sky130_fd_sc_hd__mux2_1
*CAP
1 *1063:A 0.000107117
2 *1062:X 0.000107117
3 *1063:A *1340:A 3.00381e-05
4 odata[6] *1063:A 7.89689e-05
*RES
1 *1062:X *1063:A 9.285 
*END

*D_NET *168 0.000417252
*CONN
*I *1065:A I *D sky130_fd_sc_hd__clkbuf_1
*I *1064:X O *D sky130_fd_sc_hd__mux2_1
*CAP
1 *1065:A 9.26387e-05
2 *1064:X 9.26387e-05
3 *1065:A *1064:A0 0.000137029
4 *1065:A *300:12 2.93678e-05
5 *1261:D *1065:A 6.55777e-05
*RES
1 *1064:X *1065:A 5.99 
*END

*D_NET *169 0.00038991
*CONN
*I *1067:A I *D sky130_fd_sc_hd__clkbuf_1
*I *1066:X O *D sky130_fd_sc_hd__mux2_1
*CAP
1 *1067:A 8.60722e-05
2 *1066:X 8.60722e-05
3 *1067:A *1064:A1 9.54469e-05
4 *1067:A *1064:S 4.82919e-05
5 *1067:A *1337:A 0
6 *1260:D *1067:A 7.4027e-05
*RES
1 *1066:X *1067:A 9.285 
*END

*D_NET *170 0.000584405
*CONN
*I *1069:A I *D sky130_fd_sc_hd__clkbuf_1
*I *1068:X O *D sky130_fd_sc_hd__mux2_1
*CAP
1 *1069:A 0.000162903
2 *1068:X 0.000162903
3 *1069:A *1068:A0 5.05437e-05
4 *1069:A *1213:A 8.90271e-05
5 *1069:A *1214:A 9.50342e-06
6 *1069:A *250:146 6.28498e-05
7 *1069:A *251:114 4.66742e-05
8 *1069:A *313:41 0
*RES
1 *1068:X *1069:A 10.275 
*END

*D_NET *171 0.000880693
*CONN
*I *1071:A I *D sky130_fd_sc_hd__clkbuf_1
*I *1070:X O *D sky130_fd_sc_hd__mux2_1
*CAP
1 *1071:A 0.000257253
2 *1070:X 0.000257253
3 *1071:A *1215:B 7.87426e-05
4 *1071:A *251:80 0.000129728
5 *1071:A *251:82 0.000110683
6 *1258:D *1071:A 4.70343e-05
*RES
1 *1070:X *1071:A 12.015 
*END

*D_NET *172 0.000295625
*CONN
*I *1073:A I *D sky130_fd_sc_hd__clkbuf_1
*I *1072:X O *D sky130_fd_sc_hd__mux2_1
*CAP
1 *1073:A 8.55771e-05
2 *1072:X 8.55771e-05
3 *1073:A *250:133 0.000124471
*RES
1 *1072:X *1073:A 4.955 
*END

*D_NET *173 0.000776021
*CONN
*I *1075:B2 I *D sky130_fd_sc_hd__a32o_1
*I *1074:X O *D sky130_fd_sc_hd__o2111a_1
*CAP
1 *1075:B2 0.000249554
2 *1074:X 0.000249554
3 *1075:B2 *1074:A2 7.23533e-05
4 *1075:B2 *1286:A 4.21518e-05
5 *1075:B2 *274:44 0
6 *1081:B *1075:B2 0.000162409
*RES
1 *1074:X *1075:B2 10.755 
*END

*D_NET *174 0.00411552
*CONN
*I *1081:C_N I *D sky130_fd_sc_hd__or3b_1
*I *1079:A3 I *D sky130_fd_sc_hd__a31o_1
*I *1076:B I *D sky130_fd_sc_hd__nand2_1
*I *1085:A2 I *D sky130_fd_sc_hd__a21o_1
*I *1082:A3 I *D sky130_fd_sc_hd__a31o_1
*I *1075:X O *D sky130_fd_sc_hd__a32o_1
*CAP
1 *1081:C_N 2.91088e-05
2 *1079:A3 2.13392e-05
3 *1076:B 0.000376214
4 *1085:A2 1.36356e-05
5 *1082:A3 0.000120326
6 *1075:X 3.89201e-05
7 *174:32 0.000464959
8 *174:30 0.000163587
9 *174:8 0.000260151
10 *174:6 0.000232182
11 *1076:B *1078:A1 1.61831e-05
12 *1076:B *1078:A2 0.000161529
13 *1076:B *274:19 0
14 *1076:B *274:32 0
15 *1081:C_N *1286:A 0.00016063
16 *1082:A3 *1082:B1 0.000137484
17 *1082:A3 *1085:B1 8.22346e-05
18 *1082:A3 *273:38 6.37724e-05
19 *1085:A2 *1085:B1 7.00304e-06
20 *174:6 *313:6 7.3151e-05
21 *174:8 *1085:B1 7.08493e-05
22 *174:8 *273:38 5.72282e-05
23 *174:8 *313:6 0.000232999
24 *174:30 *274:44 0.000159397
25 *174:32 *274:32 0
26 *174:32 *274:44 4.43871e-06
27 *1079:A1 *1079:A3 2.75229e-05
28 *1082:A2 *1082:A3 4.47125e-05
29 *1085:A1 *1082:A3 8.064e-05
30 *1086:B2 *1076:B 0.000175236
31 *155:10 *1076:B 7.4027e-05
32 *155:10 *174:30 0.000165774
33 *155:10 *174:32 0.000152814
34 *155:18 *1076:B 9.57187e-05
35 *161:39 *1079:A3 1.16578e-05
36 *161:39 *1081:C_N 0.00016063
37 *161:39 *174:32 9.54399e-05
38 *165:28 *1082:A3 8.40269e-05
*RES
1 *1075:X *174:6 2.395 
2 *174:6 *174:8 3.21 
3 *174:8 *1082:A3 5.62 
4 *174:8 *1085:A2 1.96 
5 *174:6 *174:30 4.145 
6 *174:30 *174:32 1.89 
7 *174:32 *1076:B 11.145 
8 *174:32 *1079:A3 4.05 
9 *174:30 *1081:C_N 5.085 
*END

*D_NET *175 0.000987562
*CONN
*I *1080:A2 I *D sky130_fd_sc_hd__o31a_1
*I *1086:A2 I *D sky130_fd_sc_hd__o221ai_1
*I *1076:Y O *D sky130_fd_sc_hd__nand2_1
*CAP
1 *1080:A2 0.00014698
2 *1086:A2 2.89988e-05
3 *1076:Y 5.06588e-05
4 *175:10 0.000226637
5 *1080:A2 *1080:A1 0.00019898
6 *1080:A2 *179:14 8.65961e-05
7 *1080:A2 *272:14 1.31227e-05
8 *1080:A2 *273:6 8.70076e-06
9 *1086:A2 *179:14 4.66108e-05
10 *175:10 *1078:A2 0
11 *1076:A *175:10 9.54399e-05
12 *1256:D *1080:A2 8.48377e-05
13 *1256:D *175:10 0
*RES
1 *1076:Y *175:10 6.725 
2 *175:10 *1086:A2 2.05 
3 *175:10 *1080:A2 4.81 
*END

*D_NET *176 0.0042554
*CONN
*I *1163:C I *D sky130_fd_sc_hd__or4_1
*I *1110:A3 I *D sky130_fd_sc_hd__o311a_1
*I *1085:B1 I *D sky130_fd_sc_hd__a21o_1
*I *1078:A2 I *D sky130_fd_sc_hd__a21oi_1
*I *1077:Y O *D sky130_fd_sc_hd__inv_2
*CAP
1 *1163:C 8.15137e-05
2 *1110:A3 0
3 *1085:B1 0.000124855
4 *1078:A2 0.000190579
5 *1077:Y 0.000138183
6 *176:38 0.000338053
7 *176:21 0.000611947
8 *176:8 0.000559314
9 *1078:A2 *1080:A3 7.4027e-05
10 *1078:A2 *1081:A 1.42807e-05
11 *1078:A2 *179:14 0
12 *1078:A2 *272:14 0
13 *1163:C *1110:A1 0.000199043
14 *1163:C *1111:A2 2.16833e-05
15 *1163:C *1163:B 0.000200201
16 *1163:C *250:75 4.71439e-05
17 *176:8 *1077:A 8.52845e-05
18 *176:8 *1080:A1 1.52352e-05
19 *176:8 *272:14 8.41307e-05
20 *176:21 *1081:A 5.46982e-05
21 *176:21 *1086:A1 0
22 *176:21 *273:23 0
23 *176:21 *273:42 6.96175e-05
24 *176:38 *1163:B 1.1561e-05
25 *176:38 *273:42 0.000509668
26 *1076:B *1078:A2 0.000161529
27 *1082:A3 *1085:B1 8.22346e-05
28 *1085:A1 *1085:B1 8.64421e-05
29 *1085:A2 *1085:B1 7.00304e-06
30 *1086:B2 *1078:A2 4.99619e-05
31 *1110:C1 *176:38 3.11927e-05
32 *1256:D *1078:A2 0.000131187
33 *1325:A *176:21 5.18317e-06
34 *1325:A *176:38 7.39039e-05
35 *155:10 *1078:A2 0
36 *155:10 *176:21 0
37 *155:18 *1078:A2 0.000124895
38 *165:8 *176:38 0
39 *174:8 *1085:B1 7.08493e-05
40 *175:10 *1078:A2 0
*RES
1 *1077:Y *176:8 5.43 
2 *176:8 *1078:A2 7.995 
3 *176:8 *176:21 3.675 
4 *176:21 *1085:B1 6.495 
5 *176:21 *176:38 8.225 
6 *176:38 *1110:A3 1.6 
7 *176:38 *1163:C 4.465 
*END

*D_NET *177 0.000237621
*CONN
*I *1080:A3 I *D sky130_fd_sc_hd__o31a_1
*I *1078:Y O *D sky130_fd_sc_hd__a21oi_1
*CAP
1 *1080:A3 6.00716e-05
2 *1078:Y 6.00716e-05
3 *1080:A3 *1080:A1 5.12969e-06
4 *1080:A3 *1080:B1 9.53428e-06
5 *1080:A3 *272:14 2.87867e-05
6 *1078:A2 *1080:A3 7.4027e-05
7 *1079:A1 *1080:A3 0
*RES
1 *1078:Y *1080:A3 8.685 
*END

*D_NET *178 0.00024175
*CONN
*I *1080:B1 I *D sky130_fd_sc_hd__o31a_1
*I *1079:X O *D sky130_fd_sc_hd__a31o_1
*CAP
1 *1080:B1 7.84385e-05
2 *1079:X 7.84385e-05
3 *1080:B1 *1080:A1 8.50369e-06
4 *1080:B1 *272:14 5.59592e-05
5 *1079:A1 *1080:B1 1.08758e-05
6 *1080:A3 *1080:B1 9.53428e-06
*RES
1 *1079:X *1080:B1 4.7 
*END

*D_NET *179 0.00261029
*CONN
*I *1086:B1 I *D sky130_fd_sc_hd__o221ai_1
*I *1083:A I *D sky130_fd_sc_hd__xnor2_1
*I *1081:X O *D sky130_fd_sc_hd__or3b_1
*CAP
1 *1086:B1 1.88809e-05
2 *1083:A 0.000625557
3 *1081:X 0.000254015
4 *179:14 0.000898453
5 *1083:A *1086:C1 4.80285e-05
6 *1083:A *248:20 0
7 *1083:A *249:33 5.71917e-05
8 *1083:A *273:6 0.000128914
9 *1086:B1 *1080:A1 0
10 *1086:B1 *1086:C1 5.4155e-06
11 *179:14 *1081:A 0
12 *179:14 *1086:C1 0.000227373
13 *179:14 *273:6 1.34503e-05
14 *179:14 *273:23 7.06865e-05
15 *1076:A *179:14 8.09021e-06
16 *1078:A2 *179:14 0
17 *1080:A2 *179:14 8.65961e-05
18 *1086:A2 *179:14 4.66108e-05
19 *161:39 *179:14 0.000121023
*RES
1 *1081:X *179:14 10.55 
2 *179:14 *1083:A 14.96 
3 *179:14 *1086:B1 1.96 
*END

*D_NET *180 0.00201516
*CONN
*I *1083:B I *D sky130_fd_sc_hd__xnor2_1
*I *1082:X O *D sky130_fd_sc_hd__a31o_1
*CAP
1 *1083:B 0.000722323
2 *1082:X 0.000722323
3 *1083:B *250:18 0
4 *165:28 *1083:B 0.000570515
*RES
1 *1082:X *1083:B 18.735 
*END

*D_NET *181 0.00649548
*CONN
*I *1091:A2 I *D sky130_fd_sc_hd__o21ai_1
*I *1086:A1 I *D sky130_fd_sc_hd__o221ai_1
*I *1084:Y O *D sky130_fd_sc_hd__nand2_1
*CAP
1 *1091:A2 0.00177494
2 *1086:A1 0.000210547
3 *1084:Y 6.33331e-05
4 *181:6 0.00204882
5 *1086:A1 *1086:C1 0.000293032
6 *1086:A1 *273:23 6.56448e-06
7 *1091:A2 *1075:A1 0.000795131
8 *1091:A2 *1264:CLK 0.000107112
9 *1091:A2 *1349:A 4.58101e-05
10 *1091:A2 *266:53 5.12017e-06
11 *1091:A2 *266:61 0.000259533
12 *1091:A2 *271:72 0.00015848
13 *1091:A2 *354:10 2.75145e-05
14 *181:6 *1075:A1 8.40213e-05
15 *1010:A *1091:A2 8.53113e-06
16 *1076:A *1086:A1 0.000115464
17 *1085:A1 *1086:A1 9.20028e-05
18 *1325:A *1086:A1 0
19 *136:10 *1091:A2 0.000138273
20 *161:50 *1086:A1 0.000187071
21 *165:28 *1086:A1 7.41754e-05
22 *176:21 *1086:A1 0
*RES
1 *1084:Y *181:6 2.395 
2 *181:6 *1086:A1 11.06 
3 *181:6 *1091:A2 29.315 
*END

*D_NET *182 0.00136806
*CONN
*I *1086:C1 I *D sky130_fd_sc_hd__o221ai_1
*I *1085:X O *D sky130_fd_sc_hd__a21o_1
*CAP
1 *1086:C1 0.000205007
2 *1085:X 0.000205007
3 *1086:C1 *1080:A1 1.85674e-05
4 *1086:C1 *273:6 0.000268739
5 *1086:C1 *273:23 9.68865e-05
6 *1083:A *1086:C1 4.80285e-05
7 *1086:A1 *1086:C1 0.000293032
8 *1086:B1 *1086:C1 5.4155e-06
9 *179:14 *1086:C1 0.000227373
*RES
1 *1085:X *1086:C1 13.86 
*END

*D_NET *183 0.00120165
*CONN
*I *1088:S I *D sky130_fd_sc_hd__mux2_1
*I *1087:X O *D sky130_fd_sc_hd__or4b_1
*CAP
1 *1088:S 0.000341479
2 *1087:X 0.000341479
3 *1088:S *1088:A1 8.49205e-05
4 *1088:S *1157:B1 9.37731e-05
5 *1088:S *1253:CLK 0.000253808
6 *1088:S *1349:A 0
7 *1088:S *293:118 1.47256e-05
8 *1088:S *310:12 0
9 *1088:S *356:10 7.14699e-05
*RES
1 *1087:X *1088:S 14.595 
*END

*D_NET *184 0.000228057
*CONN
*I *1089:A I *D sky130_fd_sc_hd__clkbuf_1
*I *1088:X O *D sky130_fd_sc_hd__mux2_1
*CAP
1 *1089:A 6.99856e-05
2 *1088:X 6.99856e-05
3 *1089:A *1157:B1 4.94326e-05
4 *1089:A *310:12 0
5 *1253:D *1089:A 3.86529e-05
*RES
1 *1088:X *1089:A 8.58 
*END

*D_NET *185 0.00108019
*CONN
*I *1091:B1 I *D sky130_fd_sc_hd__o21ai_1
*I *1090:Y O *D sky130_fd_sc_hd__o21ai_1
*CAP
1 *1091:B1 0.000305425
2 *1090:Y 0.000305425
3 *1091:B1 *1087:A 7.23602e-05
4 *1091:B1 *1090:B1 4.9253e-06
5 *1091:B1 *1253:CLK 0.000104657
6 *1091:B1 *266:81 3.12319e-05
7 *1091:B1 *270:92 0.000118081
8 *1091:B1 *271:72 7.3253e-05
9 *1090:A1 *1091:B1 4.29198e-05
10 *136:29 *1091:B1 1.33293e-05
11 *136:42 *1091:B1 8.58339e-06
*RES
1 *1090:Y *1091:B1 12.045 
*END

*D_NET *186 0.0124884
*CONN
*I *1099:A I *D sky130_fd_sc_hd__inv_2
*I *1121:B1 I *D sky130_fd_sc_hd__a31o_1
*I *1131:A I *D sky130_fd_sc_hd__nor2_1
*I *1136:B1 I *D sky130_fd_sc_hd__a31o_1
*I *1132:A2 I *D sky130_fd_sc_hd__a22o_1
*I *1114:A I *D sky130_fd_sc_hd__clkbuf_4
*I *1126:B1 I *D sky130_fd_sc_hd__a21oi_1
*I *1127:A2 I *D sky130_fd_sc_hd__a22o_1
*I *1093:C I *D sky130_fd_sc_hd__or3_2
*I *1111:A1 I *D sky130_fd_sc_hd__o21a_4
*I *1092:X O *D sky130_fd_sc_hd__clkbuf_4
*CAP
1 *1099:A 0.000171028
2 *1121:B1 0
3 *1131:A 3.17759e-05
4 *1136:B1 0.000102001
5 *1132:A2 6.71745e-05
6 *1114:A 0.000354896
7 *1126:B1 0.000180619
8 *1127:A2 2.66789e-05
9 *1093:C 0
10 *1111:A1 0.000118835
11 *1092:X 0.000177946
12 *186:130 0.0004881
13 *186:84 0.000835829
14 *186:80 0.000645172
15 *186:76 0.00036275
16 *186:57 0.000442121
17 *186:44 0.000401801
18 *186:40 0.00104144
19 *186:22 0.000918235
20 *186:10 0.00138654
21 *1099:A *1164:A1 7.00889e-06
22 *1099:A *203:20 8.99705e-05
23 *1099:A *246:8 2.75145e-05
24 *1099:A *246:24 6.38722e-05
25 *1099:A *247:22 8.65961e-05
26 *1099:A *257:14 8.65961e-05
27 *1111:A1 *1100:B 5.16418e-05
28 *1111:A1 *1111:A2 1.89685e-05
29 *1111:A1 *1164:B1 0.000304247
30 *1111:A1 *237:10 7.87426e-05
31 *1114:A *203:6 1.27028e-05
32 *1114:A *203:10 5.84237e-05
33 *1126:B1 *1126:A2 2.01885e-05
34 *1126:B1 *1127:B2 0.000124895
35 *1126:B1 *1140:A 0
36 *1126:B1 *197:18 0.000196268
37 *1126:B1 *257:88 1.37328e-05
38 *1126:B1 *257:90 8.57237e-05
39 *1127:A2 *1127:A1 4.82919e-05
40 *1127:A2 *1127:B2 1.37328e-05
41 *1127:A2 *352:20 2.75229e-05
42 *1131:A *1140:A 7.66083e-05
43 *1132:A2 *1130:B1 4.66108e-05
44 *1132:A2 *246:75 7.06865e-05
45 *1132:A2 *246:85 2.49909e-05
46 *1132:A2 *246:105 5.23362e-05
47 *1132:A2 *247:75 6.10014e-05
48 *1136:B1 *1136:A1 8.52845e-05
49 *1136:B1 *253:69 4.88478e-05
50 *1136:B1 *254:28 2.46089e-05
51 *1136:B1 *254:71 1.14559e-05
52 *1136:B1 *255:32 4.43871e-06
53 *186:10 *1198:A 0
54 *186:10 *360:10 0
55 *186:10 *360:12 1.63139e-05
56 *186:10 *360:18 1.17409e-05
57 *186:22 *1198:B 0
58 *186:22 *357:77 9.00151e-05
59 *186:22 *357:88 0.000112779
60 *186:22 *359:40 8.73389e-06
61 *186:40 *201:20 0.000122877
62 *186:40 *201:40 4.65721e-05
63 *186:40 *257:26 0
64 *186:40 *258:8 0
65 *186:40 *360:10 0
66 *186:44 *1122:B2 0
67 *186:44 *1129:A 7.55391e-05
68 *186:44 *1245:CLK 0
69 *186:44 *201:40 7.47145e-05
70 *186:44 *201:53 0.000535818
71 *186:44 *203:32 4.05358e-05
72 *186:44 *257:26 0
73 *186:57 *1128:A1 0.000117832
74 *186:57 *1129:A 2.42236e-05
75 *186:57 *201:53 0.000152134
76 *186:57 *201:66 9.50342e-06
77 *186:76 *1128:A1 9.50342e-06
78 *186:76 *1140:A 0.000274952
79 *186:76 *1171:A1 0
80 *186:76 *201:66 0.000170484
81 *186:76 *254:30 0
82 *186:80 *201:66 0
83 *186:80 *254:28 0.000105955
84 *186:130 *1121:A1 0.000157589
85 *186:130 *1122:A1_N 5.83121e-06
86 *186:130 *1122:A2_N 0.000198242
87 *186:130 *197:55 7.68414e-06
88 *186:130 *246:24 0
89 *186:130 *257:14 9.80032e-06
90 *186:130 *257:18 1.46744e-05
91 *1110:C1 *1111:A1 0.000119569
92 *1110:C1 *186:22 0.000122337
93 *1184:A *1099:A 4.66108e-05
94 *1226:A *186:22 4.82919e-05
95 *1246:D *186:40 0
96 *1246:RESET_B *186:40 0
97 *1271:RESET_B *186:22 2.75145e-05
98 *131:14 *186:10 5.83121e-06
99 *131:76 *186:40 0
100 *159:8 *186:22 4.77719e-05
*RES
1 *1092:X *186:10 6.03 
2 *186:10 *186:22 14.93 
3 *186:22 *1111:A1 10.04 
4 *186:22 *1093:C 1.6 
5 *186:10 *186:40 7.5 
6 *186:40 *186:44 7.44 
7 *186:44 *1127:A2 4.41 
8 *186:44 *186:57 1.89 
9 *186:57 *1126:B1 7.785 
10 *186:57 *186:76 6.665 
11 *186:76 *186:80 4.91 
12 *186:80 *186:84 6.245 
13 *186:84 *1114:A 6.55 
14 *186:84 *1132:A2 7.43 
15 *186:80 *1136:B1 5.775 
16 *186:76 *1131:A 2.395 
17 *186:40 *186:130 6.515 
18 *186:130 *1121:B1 1.6 
19 *186:130 *1099:A 5.86 
*END

*D_NET *187 0.00620728
*CONN
*I *1156:C1 I *D sky130_fd_sc_hd__o211a_1
*I *1102:B I *D sky130_fd_sc_hd__xor2_1
*I *1094:A2 I *D sky130_fd_sc_hd__a21bo_1
*I *1093:X O *D sky130_fd_sc_hd__or3_2
*CAP
1 *1156:C1 4.42098e-05
2 *1102:B 5.64129e-05
3 *1094:A2 9.70906e-05
4 *1093:X 0.00107649
5 *187:14 0.000958761
6 *187:10 0.00192596
7 *1094:A2 *270:28 1.34594e-05
8 *1156:C1 *354:25 0.00013686
9 *187:10 *1052:A1 4.0843e-05
10 *187:10 *1052:B2 2.68464e-05
11 *187:10 *1154:A1 7.07801e-05
12 *187:10 *305:16 7.46855e-05
13 *187:10 *354:59 0
14 *187:14 *1154:A1 6.28765e-05
15 *187:14 *1218:B 8.41703e-06
16 *187:14 *1344:A 0
17 *187:14 *1349:A 0
18 *187:14 *250:91 0
19 *187:14 *266:10 8.76033e-05
20 *187:14 *266:12 5.16418e-05
21 *187:14 *270:24 0.00010004
22 *187:14 *354:10 0
23 *187:14 *354:21 0
24 *187:14 *354:59 0
25 *1052:B1 *187:10 7.03925e-06
26 *1102:A *1094:A2 0.00039046
27 *1102:A *1102:B 0.000121023
28 *1153:A2 *187:10 4.66108e-05
29 *1153:A3 *187:10 0.00018955
30 *1250:D *1094:A2 0.000312182
31 *1264:RESET_B *187:14 6.44134e-05
32 *155:104 *187:10 7.68414e-06
33 *156:14 *187:14 0
34 *159:71 *1156:C1 0.000235339
*RES
1 *1093:X *187:10 16.38 
2 *187:10 *187:14 16.385 
3 *187:14 *1094:A2 5.5 
4 *187:14 *1102:B 2.74 
5 *187:10 *1156:C1 5.775 
*END

*D_NET *188 0.00170294
*CONN
*I *1101:B1 I *D sky130_fd_sc_hd__o21ai_1
*I *1097:A I *D sky130_fd_sc_hd__xnor2_1
*I *1094:X O *D sky130_fd_sc_hd__a21bo_1
*CAP
1 *1101:B1 1.83454e-05
2 *1097:A 0.00049942
3 *1094:X 3.38648e-05
4 *188:8 0.000551631
5 *1097:A *1006:A 0
6 *1097:A *1096:A 0.000113797
7 *1097:A *1097:B 6.75551e-05
8 *1097:A *1344:A 0
9 *1097:A *270:32 0.000110215
10 *1101:B1 *270:32 1.94892e-05
11 *1250:D *188:8 4.82919e-05
12 *133:14 *1097:A 2.87867e-05
13 *157:27 *1097:A 0.00018637
14 *157:27 *1101:B1 2.51754e-05
*RES
1 *1094:X *188:8 4.05 
2 *188:8 *1097:A 13.365 
3 *188:8 *1101:B1 4.215 
*END

*D_NET *189 0.000357267
*CONN
*I *1096:A I *D sky130_fd_sc_hd__and2_1
*I *1095:X O *D sky130_fd_sc_hd__or2_1
*CAP
1 *1096:A 6.21542e-05
2 *1095:X 6.21542e-05
3 *1096:A *249:89 4.77719e-05
4 *1096:B *1096:A 3.29217e-05
5 *1097:A *1096:A 0.000113797
6 *133:14 *1096:A 2.937e-05
7 *157:27 *1096:A 9.09788e-06
*RES
1 *1095:X *1096:A 9.03 
*END

*D_NET *190 0.000632297
*CONN
*I *1097:B I *D sky130_fd_sc_hd__xnor2_1
*I *1096:X O *D sky130_fd_sc_hd__and2_1
*CAP
1 *1097:B 0.000200865
2 *1096:X 0.000200865
3 *1097:B *274:8 0
4 *1097:A *1097:B 6.75551e-05
5 *1251:D *1097:B 3.50152e-06
6 *133:14 *1097:B 0.000159511
*RES
1 *1096:X *1097:B 10.425 
*END

*D_NET *191 0.00234182
*CONN
*I *1165:A1_N I *D sky130_fd_sc_hd__a2bb2o_1
*I *1100:B I *D sky130_fd_sc_hd__and3_2
*I *1098:Y O *D sky130_fd_sc_hd__inv_2
*CAP
1 *1165:A1_N 0.000252579
2 *1100:B 0.000175277
3 *1098:Y 4.52036e-05
4 *191:6 0.00047306
5 *1100:B *1100:C 0.000108828
6 *1100:B *1164:B1 1.7902e-05
7 *1100:B *1271:CLK 5.83121e-06
8 *1165:A1_N *1093:B 3.66286e-05
9 *1165:A1_N *1160:A2 0
10 *1165:A1_N *1164:B1 0.000251595
11 *1165:A1_N *1165:A2_N 4.77757e-05
12 *1165:A1_N *237:10 5.33085e-05
13 *1165:A1_N *357:88 0.000119762
14 *191:6 *1093:B 0.000233535
15 *191:6 *357:77 8.64421e-05
16 *191:6 *357:88 0.000146135
17 *1110:C1 *1100:B 0.000122582
18 *1111:A1 *1100:B 5.16418e-05
19 *1266:RESET_B *1165:A1_N 0
20 *154:53 *1100:B 0.000113732
*RES
1 *1098:Y *191:6 3.775 
2 *191:6 *1100:B 9.56 
3 *191:6 *1165:A1_N 10.97 
*END

*D_NET *192 0.00777037
*CONN
*I *1179:A2 I *D sky130_fd_sc_hd__a21bo_1
*I *1140:B I *D sky130_fd_sc_hd__nand2_1
*I *1145:S I *D sky130_fd_sc_hd__mux2_1
*I *1170:A2 I *D sky130_fd_sc_hd__o21ai_1
*I *1160:B2 I *D sky130_fd_sc_hd__o32a_1
*I *1100:C I *D sky130_fd_sc_hd__and3_2
*I *1099:Y O *D sky130_fd_sc_hd__inv_2
*CAP
1 *1179:A2 0.000469268
2 *1140:B 0
3 *1145:S 9.34432e-05
4 *1170:A2 0
5 *1160:B2 2.83143e-05
6 *1100:C 0.00016251
7 *1099:Y 0
8 *192:60 0.000179489
9 *192:56 0.000465427
10 *192:48 0.00191369
11 *192:16 0.000608162
12 *192:6 0.00148238
13 *1100:C *1271:CLK 0.000151534
14 *1145:S *1145:A1 4.66108e-05
15 *1145:S *1170:A1 7.26348e-05
16 *1145:S *1170:B1 5.12969e-06
17 *1145:S *1328:A 1.52352e-05
18 *1160:B2 *1160:A2 4.82863e-05
19 *1160:B2 *1160:A3 5.80232e-06
20 *1179:A2 *1179:A1 6.77417e-05
21 *1179:A2 *1179:B1_N 4.82919e-05
22 *192:16 *1149:S 7.06865e-05
23 *192:16 *1164:B1 1.7902e-05
24 *192:16 *1271:CLK 7.1301e-06
25 *192:16 *201:14 9.54399e-05
26 *192:16 *203:18 8.53113e-06
27 *192:16 *247:10 3.18219e-05
28 *192:16 *247:64 3.18137e-05
29 *192:16 *359:16 2.42236e-05
30 *192:16 *359:26 0.000218255
31 *192:48 *1129:A 5.13692e-05
32 *192:48 *1195:B 2.75145e-05
33 *192:48 *203:18 0.00026281
34 *192:48 *267:23 0
35 *192:48 *359:16 4.05358e-05
36 *192:56 *1127:B2 0
37 *192:56 *1140:A 0
38 *192:56 *1170:B1 1.14169e-05
39 *192:56 *1328:A 0
40 *192:56 *224:6 2.01504e-05
41 *192:60 *1140:A 1.75875e-05
42 *192:60 *1170:B1 4.65706e-05
43 *192:60 *1328:A 1.98144e-05
44 *1100:A *1100:C 3.60024e-06
45 *1100:B *1100:C 0.000108828
46 *1164:A2 *1160:B2 2.75145e-05
47 *1164:A2 *192:16 9.14049e-05
48 *1245:D *192:48 0.000121817
49 *1245:RESET_B *192:48 8.40213e-05
50 *133:75 *192:16 0.000341386
51 *154:53 *1100:C 0.00010523
52 *154:53 *192:16 9.50342e-06
53 *154:60 *1160:B2 9.53428e-06
*RES
1 *1099:Y *192:6 3.6 
2 *192:6 *192:16 12.01 
3 *192:16 *1100:C 7.26 
4 *192:16 *1160:B2 4.41 
5 *192:6 *192:48 18.725 
6 *192:48 *192:56 9.145 
7 *192:56 *192:60 1.755 
8 *192:60 *1170:A2 1.6 
9 *192:60 *1145:S 3.445 
10 *192:56 *1140:B 1.6 
11 *192:48 *1179:A2 8.455 
*END

*D_NET *193 0.0107445
*CONN
*I *1155:A2 I *D sky130_fd_sc_hd__a21o_1
*I *1152:A3 I *D sky130_fd_sc_hd__a31o_1
*I *1157:A2 I *D sky130_fd_sc_hd__a22o_1
*I *1101:A2 I *D sky130_fd_sc_hd__o21ai_1
*I *1100:X O *D sky130_fd_sc_hd__and3_2
*CAP
1 *1155:A2 1.21355e-05
2 *1152:A3 0.000337955
3 *1157:A2 0.000125427
4 *1101:A2 0.000679132
5 *1100:X 0.000522271
6 *193:50 0.000838203
7 *193:33 0.0012592
8 *193:14 0.00184706
9 *1101:A2 *1287:A 5.39961e-05
10 *1101:A2 *261:8 0.00138087
11 *1152:A3 *1152:A1 2.30292e-05
12 *1152:A3 *1152:A2 4.82919e-05
13 *1152:A3 *1152:B1 4.82863e-05
14 *1152:A3 *1155:A1 3.45252e-05
15 *1152:A3 *1155:B1 4.82863e-05
16 *1152:A3 *1284:A 0.000270653
17 *1152:A3 *268:6 7.95174e-06
18 *1152:A3 *268:56 7.5269e-05
19 *1152:A3 *361:25 2.86623e-05
20 *1152:A3 *361:40 0.00016866
21 *1155:A2 *1155:A1 2.51977e-05
22 *1155:A2 *268:6 1.0766e-05
23 *1157:A2 *1157:A1 1.85674e-05
24 *1157:A2 *1157:B1 4.82863e-05
25 *1157:A2 *310:12 3.68682e-05
26 *193:14 *355:8 4.92062e-05
27 *193:33 *1293:A 0.000123225
28 *193:33 *261:8 7.23602e-05
29 *193:33 *261:42 0.000194694
30 *193:33 *359:91 0.000112654
31 *193:50 *1284:A 0
32 *193:50 *268:10 0.000127366
33 *193:50 *268:14 0.00053347
34 *193:50 *310:10 5.21627e-05
35 *193:50 *310:12 7.21296e-06
36 *193:50 *354:59 0
37 *193:50 *354:80 0
38 *193:50 *361:12 5.4256e-05
39 *1045:C1 *1157:A2 0
40 *1055:A *1101:A2 1.61461e-05
41 *1057:A2 *1101:A2 1.88656e-05
42 *1057:B1 *1101:A2 0
43 *1057:B1 *193:33 0
44 *1058:A4 *1101:A2 0.000246333
45 *1236:D *1157:A2 0
46 *1236:D *193:50 0
47 *1236:RESET_B *193:50 2.60908e-05
48 *1250:D *1101:A2 7.00889e-06
49 *1266:RESET_B *193:14 2.20753e-05
50 *1301:A *1152:A3 0.000161529
51 *154:24 *193:14 0.000224617
52 *155:55 *1101:A2 0
53 *155:125 *193:33 1.1561e-05
54 *156:51 *1101:A2 0.000341692
55 *157:27 *1101:A2 0.000229658
56 *161:14 *1101:A2 0.000162776
*RES
1 *1100:X *193:14 12.03 
2 *193:14 *1101:A2 23.025 
3 *193:14 *193:33 14.545 
4 *193:33 *1157:A2 6.045 
5 *193:33 *193:50 12.305 
6 *193:50 *1152:A3 13.625 
7 *193:50 *1155:A2 1.99375 
*END

*D_NET *194 0.000719335
*CONN
*I *1109:A1 I *D sky130_fd_sc_hd__mux2_1
*I *1104:B1_N I *D sky130_fd_sc_hd__a21bo_1
*I *1103:X O *D sky130_fd_sc_hd__or2b_1
*CAP
1 *1109:A1 0
2 *1104:B1_N 0.000100868
3 *1103:X 0.000148035
4 *194:8 0.000248903
5 *1104:B1_N *1103:B_N 0
6 *1104:B1_N *1105:A 0
7 *1104:B1_N *1109:S 0.000187766
8 *1104:B1_N *1112:A0 1.26548e-05
9 *194:8 *1109:S 2.11084e-05
10 *194:8 *1112:A1 0
*RES
1 *1103:X *194:8 3.445 
2 *194:8 *1104:B1_N 8 
3 *194:8 *1109:A1 1.6 
*END

*D_NET *195 0.000545236
*CONN
*I *1105:A I *D sky130_fd_sc_hd__buf_1
*I *1104:X O *D sky130_fd_sc_hd__a21bo_1
*CAP
1 *1105:A 0.000241954
2 *1104:X 0.000241954
3 *1105:A *1103:B_N 6.13283e-05
4 *1105:A *1109:A0 0
5 *1104:B1_N *1105:A 0
*RES
1 *1104:X *1105:A 11.175 
*END

*D_NET *196 0.000438897
*CONN
*I *1107:A I *D sky130_fd_sc_hd__clkbuf_2
*I *1106:X O *D sky130_fd_sc_hd__and4_1
*CAP
1 *1107:A 3.6208e-05
2 *1106:X 3.6208e-05
3 *1107:A *1106:B 2.30292e-05
4 *1107:A *197:6 0.000124007
5 *1107:A *255:66 2.05056e-05
6 *1107:A *256:24 0.000198939
*RES
1 *1106:X *1107:A 5.03 
*END

*D_NET *197 0.00884029
*CONN
*I *1131:B I *D sky130_fd_sc_hd__nor2_1
*I *1121:A3 I *D sky130_fd_sc_hd__a31o_1
*I *1108:D I *D sky130_fd_sc_hd__and4_1
*I *1115:A3 I *D sky130_fd_sc_hd__a31oi_1
*I *1120:A2 I *D sky130_fd_sc_hd__a21oi_1
*I *1126:A2 I *D sky130_fd_sc_hd__a21oi_1
*I *1125:B I *D sky130_fd_sc_hd__or2_1
*I *1107:X O *D sky130_fd_sc_hd__clkbuf_2
*CAP
1 *1131:B 0.000129405
2 *1121:A3 1.85694e-05
3 *1108:D 0
4 *1115:A3 5.84009e-05
5 *1120:A2 0.000447323
6 *1126:A2 6.42708e-05
7 *1125:B 0
8 *1107:X 0
9 *197:55 0.000457097
10 *197:53 0.000435865
11 *197:38 0.000791849
12 *197:18 0.00042811
13 *197:6 0.000720298
14 *197:4 0.000159937
15 *1115:A3 *1328:A 0.000136182
16 *1115:A3 *203:46 1.73877e-05
17 *1115:A3 *258:38 4.94404e-05
18 *1120:A2 *1121:A1 0
19 *1120:A2 *201:14 0.000257825
20 *1120:A2 *257:14 1.52184e-05
21 *1120:A2 *257:26 2.30292e-05
22 *1120:A2 *257:34 3.00381e-05
23 *1120:A2 *258:12 0.000382954
24 *1120:A2 *258:26 4.82919e-05
25 *1120:A2 *293:46 0
26 *1121:A3 *1122:A2_N 0
27 *1121:A3 *257:18 9.53428e-06
28 *1126:A2 *1126:A1 0.000143462
29 *1126:A2 *1140:A 5.84828e-05
30 *1131:B *1106:D 0
31 *1131:B *1132:B2 5.0751e-05
32 *1131:B *246:75 1.07797e-05
33 *1131:B *255:57 0.000116853
34 *1131:B *293:46 0.000185492
35 *197:6 *1106:B 0.00015896
36 *197:6 *256:24 1.46828e-05
37 *197:18 *1106:A 2.75145e-05
38 *197:18 *1106:B 0.000119756
39 *197:18 *1126:A1 3.14081e-05
40 *197:18 *1140:A 0
41 *197:18 *201:53 2.97004e-06
42 *197:18 *201:66 1.44259e-05
43 *197:18 *256:24 9.02259e-05
44 *197:18 *257:88 0.000106082
45 *197:18 *257:90 0.00032127
46 *197:38 *1106:D 3.09164e-05
47 *197:38 *1122:B2 0
48 *197:38 *1171:A1 0.000103135
49 *197:38 *1245:CLK 0
50 *197:38 *203:32 0
51 *197:38 *257:14 8.97486e-05
52 *197:38 *257:88 0.000255633
53 *197:38 *293:46 3.26822e-05
54 *197:53 *203:20 0.000124895
55 *197:53 *257:14 8.65905e-05
56 *197:53 *257:18 1.60203e-05
57 *197:55 *1108:A 9.47972e-06
58 *197:55 *1122:A1_N 4.08514e-05
59 *197:55 *1122:A2_N 6.04333e-05
60 *197:55 *1123:A1 0.000163199
61 *197:55 *1123:S 0.000124895
62 *197:55 *203:20 0.000151539
63 *197:55 *203:32 0.000123313
64 *197:55 *203:46 0.000121031
65 *197:55 *257:18 7.35813e-05
66 *197:55 *257:36 4.82863e-05
67 *197:55 *258:26 2.7441e-05
68 *197:55 *258:28 0.000543081
69 *1107:A *197:6 0.000124007
70 *1126:B1 *1126:A2 2.01885e-05
71 *1126:B1 *197:18 0.000196268
72 *1245:D *197:38 5.53929e-05
73 *131:76 *1120:A2 7.58604e-05
74 *186:130 *197:55 7.68414e-06
*RES
1 *1107:X *197:4 1.6 
2 *197:4 *197:6 1.485 
3 *197:6 *197:18 12.085 
4 *197:18 *1125:B 1.6 
5 *197:18 *1126:A2 3.805 
6 *197:6 *197:38 10.265 
7 *197:38 *1120:A2 12.57 
8 *197:38 *197:53 3.14 
9 *197:53 *197:55 10.8 
10 *197:55 *1115:A3 7.235 
11 *197:55 *1108:D 1.6 
12 *197:53 *1121:A3 1.96 
13 *197:4 *1131:B 9.065 
*END

*D_NET *198 0.00258899
*CONN
*I *1117:A2 I *D sky130_fd_sc_hd__o31ai_1
*I *1109:S I *D sky130_fd_sc_hd__mux2_1
*I *1108:X O *D sky130_fd_sc_hd__and4_1
*CAP
1 *1117:A2 5.02187e-05
2 *1109:S 0.000641058
3 *1108:X 5.41885e-05
4 *198:8 0.000745465
5 *1109:S *1104:A1 0.000163193
6 *1109:S *1112:A0 8.53113e-06
7 *1109:S *1178:A 0
8 *1109:S *1328:A 3.09233e-05
9 *1109:S *257:34 9.29751e-06
10 *1109:S *259:25 0.000254604
11 *1109:S *259:29 0
12 *1117:A2 *1117:A1 6.9114e-05
13 *1117:A2 *1117:A3 4.15527e-05
14 *1117:A2 *1328:A 2.05056e-05
15 *198:8 *1117:A3 7.23602e-05
16 *198:8 *1328:A 0.000140912
17 *198:8 *259:29 0
18 *1104:B1_N *1109:S 0.000187766
19 *1247:RESET_B *1109:S 7.81876e-05
20 *194:8 *1109:S 2.11084e-05
*RES
1 *1108:X *198:8 5.235 
2 *198:8 *1109:S 17.205 
3 *198:8 *1117:A2 4.9275 
*END

*D_NET *199 0.000486399
*CONN
*I *1112:A1 I *D sky130_fd_sc_hd__mux2_1
*I *1109:X O *D sky130_fd_sc_hd__mux2_1
*CAP
1 *1112:A1 0.000142892
2 *1109:X 0.000142892
3 *1112:A1 *1112:A0 0.000200615
4 *194:8 *1112:A1 0
*RES
1 *1109:X *1112:A1 5.735 
*END

*D_NET *200 0.000545453
*CONN
*I *1111:A2 I *D sky130_fd_sc_hd__o21a_4
*I *1110:X O *D sky130_fd_sc_hd__o311a_1
*CAP
1 *1111:A2 0.000145164
2 *1110:X 0.000145164
3 *1111:A2 *1163:B 8.65961e-05
4 *1111:A2 *237:10 3.99039e-05
5 *1110:C1 *1111:A2 8.79741e-05
6 *1111:A1 *1111:A2 1.89685e-05
7 *1163:C *1111:A2 2.16833e-05
*RES
1 *1110:X *1111:A2 9.975 
*END

*D_NET *201 0.0144889
*CONN
*I *1138:S I *D sky130_fd_sc_hd__mux2_1
*I *1133:S I *D sky130_fd_sc_hd__mux2_1
*I *1142:S I *D sky130_fd_sc_hd__mux2_1
*I *1146:S I *D sky130_fd_sc_hd__mux2_1
*I *1128:S I *D sky130_fd_sc_hd__mux2_1
*I *1123:S I *D sky130_fd_sc_hd__mux2_1
*I *1118:S I *D sky130_fd_sc_hd__mux2_1
*I *1112:S I *D sky130_fd_sc_hd__mux2_1
*I *1111:X O *D sky130_fd_sc_hd__o21a_4
*CAP
1 *1138:S 9.04398e-05
2 *1133:S 0.000557971
3 *1142:S 0
4 *1146:S 0.000361677
5 *1128:S 0
6 *1123:S 3.91204e-05
7 *1118:S 0
8 *1112:S 0.000641871
9 *1111:X 0.000863217
10 *201:88 0.000879927
11 *201:81 0.000665441
12 *201:66 0.000990476
13 *201:53 0.000523388
14 *201:40 0.000444573
15 *201:20 0.00132667
16 *201:14 0.00162496
17 *1112:S *1118:A1 1.61831e-05
18 *1112:S *1119:A 5.63405e-05
19 *1112:S *1178:A 0
20 *1112:S *1246:CLK 0.000119277
21 *1112:S *259:25 5.05437e-05
22 *1112:S *265:79 0.000298647
23 *1123:S *1122:A1_N 9.61248e-05
24 *1123:S *1122:A2_N 0
25 *1123:S *258:26 2.55763e-05
26 *1133:S *1133:A0 2.26862e-05
27 *1133:S *1134:A 0
28 *1133:S *1244:CLK 0
29 *1133:S *203:123 1.56428e-05
30 *1133:S *247:107 0.00011852
31 *1138:S *1138:A1 6.90384e-05
32 *1138:S *246:109 4.82919e-05
33 *1138:S *255:16 4.82919e-05
34 *1138:S *255:28 0.000133875
35 *1146:S *1140:A 5.05521e-05
36 *1146:S *1146:A0 0.000138799
37 *1146:S *293:46 0.000194579
38 *201:14 *1059:B 0
39 *201:14 *247:10 0.000162311
40 *201:14 *293:46 0
41 *201:14 *357:77 2.68721e-05
42 *201:14 *359:26 0.000225192
43 *201:14 *359:30 1.01661e-05
44 *201:14 *359:40 0.000277029
45 *201:20 *1124:A 8.8266e-05
46 *201:20 *258:26 2.96553e-05
47 *201:20 *259:25 5.83121e-06
48 *201:40 *1122:A1_N 4.05358e-05
49 *201:40 *258:26 5.98004e-06
50 *201:53 *1127:B1 5.33874e-05
51 *201:66 *1140:A 0.000112622
52 *201:81 *1142:A0 4.66108e-05
53 *201:81 *1142:A1 7.23602e-05
54 *201:81 *1191:B 0.000383691
55 *201:81 *1241:CLK 0
56 *201:88 *1142:A0 0.000222134
57 *1120:A2 *201:14 0.000257825
58 *1184:A *201:14 1.0183e-05
59 *1246:D *201:20 2.75145e-05
60 *1247:D *1112:S 9.71067e-05
61 *1271:D *201:14 0
62 *131:76 *201:14 0.000347917
63 *131:91 *201:14 0.000123225
64 *186:40 *201:20 0.000122877
65 *186:40 *201:40 4.65721e-05
66 *186:44 *201:40 7.47145e-05
67 *186:44 *201:53 0.000535818
68 *186:57 *201:53 0.000152134
69 *186:57 *201:66 9.50342e-06
70 *186:76 *201:66 0.000170484
71 *186:80 *201:66 0
72 *192:16 *201:14 9.54399e-05
73 *197:18 *201:53 2.97004e-06
74 *197:18 *201:66 1.44259e-05
75 *197:55 *1123:S 0.000124895
*RES
1 *1111:X *201:14 26.29 
2 *201:14 *201:20 13.385 
3 *201:20 *1112:S 18.86 
4 *201:20 *1118:S 1.6 
5 *201:14 *201:40 1.89 
6 *201:40 *1123:S 5.1 
7 *201:40 *201:53 8.01 
8 *201:53 *1128:S 3.6 
9 *201:53 *201:66 6.23 
10 *201:66 *1146:S 8.95 
11 *201:66 *201:81 12.715 
12 *201:81 *1142:S 1.6 
13 *201:81 *201:88 3.9 
14 *201:88 *1133:S 14.39 
15 *201:88 *1138:S 8.045 
*END

*D_NET *202 0.000441689
*CONN
*I *1113:A I *D sky130_fd_sc_hd__clkbuf_1
*I *1112:X O *D sky130_fd_sc_hd__mux2_1
*CAP
1 *1113:A 0.000138573
2 *1112:X 0.000138573
3 *1113:A *1109:A0 0
4 *1113:A *1112:A0 0
5 *1113:A *1178:A 4.05358e-05
6 *1113:A *1334:A 0.000124007
*RES
1 *1112:X *1113:A 9.825 
*END

*D_NET *203 0.0125038
*CONN
*I *1175:S I *D sky130_fd_sc_hd__mux2_1
*I *1137:B2 I *D sky130_fd_sc_hd__a2bb2o_1
*I *1168:S I *D sky130_fd_sc_hd__mux2_1
*I *1173:S I *D sky130_fd_sc_hd__mux2_1
*I *1171:S I *D sky130_fd_sc_hd__mux2_1
*I *1164:A1 I *D sky130_fd_sc_hd__a22o_1
*I *1122:B2 I *D sky130_fd_sc_hd__a2bb2o_1
*I *1116:B I *D sky130_fd_sc_hd__nand2_1
*I *1177:S I *D sky130_fd_sc_hd__mux2_1
*I *1117:A1 I *D sky130_fd_sc_hd__o31ai_1
*I *1114:X O *D sky130_fd_sc_hd__clkbuf_4
*CAP
1 *1175:S 8.01952e-05
2 *1137:B2 0
3 *1168:S 0.000586095
4 *1173:S 4.40053e-05
5 *1171:S 1.8095e-05
6 *1164:A1 0.000149983
7 *1122:B2 5.37262e-05
8 *1116:B 0
9 *1177:S 2.8223e-05
10 *1117:A1 0.000123322
11 *1114:X 3.18836e-05
12 *203:123 0.00148866
13 *203:46 0.000556706
14 *203:32 0.00107617
15 *203:20 0.00120529
16 *203:18 0.000819632
17 *203:14 0.000270634
18 *203:12 0.000257205
19 *203:10 0.00120115
20 *203:6 0.00026091
21 *1117:A1 *1117:A3 2.1551e-05
22 *1117:A1 *1117:B1 0.000120186
23 *1117:A1 *1328:A 0.000162311
24 *1117:A1 *259:29 9.71067e-05
25 *1117:A1 *259:46 2.14129e-05
26 *1122:B2 *257:26 9.09788e-06
27 *1164:A1 *1164:B1 4.89295e-05
28 *1164:A1 *247:22 0.000100868
29 *1168:S *1141:A 8.52883e-05
30 *1168:S *1141:B 4.88478e-05
31 *1168:S *1142:A1 0.000316421
32 *1168:S *1168:A0 0.000239807
33 *1171:S *1171:A1 8.49205e-05
34 *1171:S *352:20 8.49205e-05
35 *1173:S *256:24 4.80285e-05
36 *1175:S *256:16 0.000128378
37 *1177:S *1108:A 4.82919e-05
38 *1177:S *1177:A1 4.82919e-05
39 *203:12 *1171:A0 3.9442e-05
40 *203:12 *247:75 0.000174065
41 *203:12 *256:16 0
42 *203:14 *1171:A0 8.52172e-05
43 *203:14 *247:75 8.15598e-05
44 *203:18 *1171:A0 3.86529e-05
45 *203:18 *247:64 9.50036e-05
46 *203:18 *247:75 0.0001032
47 *203:18 *267:23 0
48 *203:18 *352:20 0
49 *203:20 *246:8 4.82863e-05
50 *203:20 *257:14 4.21973e-05
51 *203:46 *1177:A0 1.16578e-05
52 *203:46 *1177:A1 9.52621e-05
53 *203:46 *257:36 3.96737e-05
54 *203:46 *258:38 7.01359e-05
55 *203:123 *1133:A0 5.83121e-06
56 *203:123 *1133:A1 7.06865e-05
57 *203:123 *1135:A1 1.19928e-05
58 *203:123 *1135:A2 2.75229e-05
59 *203:123 *1137:A1_N 7.29049e-05
60 *203:123 *247:75 0.000121876
61 *203:123 *247:107 3.50033e-05
62 *203:123 *256:10 0
63 *1099:A *1164:A1 7.00889e-06
64 *1099:A *203:20 8.99705e-05
65 *1114:A *203:6 1.27028e-05
66 *1114:A *203:10 5.84237e-05
67 *1115:A3 *203:46 1.73877e-05
68 *1117:A2 *1117:A1 6.9114e-05
69 *1133:S *203:123 1.56428e-05
70 *1184:A *203:20 2.49909e-05
71 *1245:RESET_B *203:18 0.000139238
72 *186:44 *1122:B2 0
73 *186:44 *203:32 4.05358e-05
74 *192:16 *203:18 8.53113e-06
75 *192:48 *203:18 0.00026281
76 *197:38 *1122:B2 0
77 *197:38 *203:32 0
78 *197:53 *203:20 0.000124895
79 *197:55 *203:20 0.000151539
80 *197:55 *203:32 0.000123313
81 *197:55 *203:46 0.000121031
*RES
1 *1114:X *203:6 2.05 
2 *203:6 *203:10 3.83 
3 *203:10 *203:12 3.675 
4 *203:12 *203:14 1.89 
5 *203:14 *203:18 7.715 
6 *203:18 *203:20 6.315 
7 *203:20 *203:32 13.975 
8 *203:32 *203:46 10.015 
9 *203:46 *1117:A1 9.335 
10 *203:46 *1177:S 2.395 
11 *203:32 *1116:B 1.6 
12 *203:20 *1122:B2 6.47 
13 *203:18 *1164:A1 4.6 
14 *203:14 *1171:S 4.395 
15 *203:12 *1173:S 4.395 
16 *203:10 *203:123 14.66 
17 *203:123 *1168:S 12.325 
18 *203:123 *1137:B2 1.6 
19 *203:6 *1175:S 8.51 
*END

*D_NET *204 0.000759665
*CONN
*I *1117:A3 I *D sky130_fd_sc_hd__o31ai_1
*I *1115:Y O *D sky130_fd_sc_hd__a31oi_1
*CAP
1 *1117:A3 0.000193176
2 *1115:Y 0.000193176
3 *1117:A3 *1115:A2 0.000116165
4 *1117:A3 *1328:A 3.13459e-05
5 *1117:A3 *259:29 3.47837e-05
6 *1117:A3 *259:46 5.5554e-05
7 *1117:A1 *1117:A3 2.1551e-05
8 *1117:A2 *1117:A3 4.15527e-05
9 *198:8 *1117:A3 7.23602e-05
*RES
1 *1115:Y *1117:A3 11.25 
*END

*D_NET *205 0.00192282
*CONN
*I *1179:B1_N I *D sky130_fd_sc_hd__a21bo_1
*I *1117:B1 I *D sky130_fd_sc_hd__o31ai_1
*I *1116:Y O *D sky130_fd_sc_hd__nand2_1
*CAP
1 *1179:B1_N 0.000155445
2 *1117:B1 0.000193217
3 *1116:Y 0.000144653
4 *205:12 0.000493315
5 *1117:B1 *1177:A0 0.00010698
6 *1117:B1 *1178:A 0.000141592
7 *1117:B1 *1328:A 0
8 *1117:B1 *259:29 4.03082e-05
9 *1117:B1 *259:46 7.26551e-05
10 *1179:B1_N *1177:A0 0
11 *1179:B1_N *1179:A1 0.000187537
12 *1179:B1_N *1328:A 0
13 *205:12 *1115:A2 4.66108e-05
14 *205:12 *1177:A0 4.60584e-05
15 *205:12 *258:38 4.27523e-05
16 *205:12 *258:49 3.49228e-05
17 *205:12 *259:46 4.82919e-05
18 *1117:A1 *1117:B1 0.000120186
19 *1179:A2 *1179:B1_N 4.82919e-05
*RES
1 *1116:Y *205:12 6.3675 
2 *205:12 *1117:B1 8.7975 
3 *205:12 *1179:B1_N 6.5775 
*END

*D_NET *206 0.000350174
*CONN
*I *1118:A1 I *D sky130_fd_sc_hd__mux2_1
*I *1117:Y O *D sky130_fd_sc_hd__o31ai_1
*CAP
1 *1118:A1 8.64015e-05
2 *1117:Y 8.64015e-05
3 *1118:A1 *1178:A 4.05358e-05
4 *1118:A1 *259:25 4.82919e-05
5 *1118:A1 *259:29 7.23602e-05
6 *1112:S *1118:A1 1.61831e-05
*RES
1 *1117:Y *1118:A1 8.865 
*END

*D_NET *207 0.000287458
*CONN
*I *1119:A I *D sky130_fd_sc_hd__clkbuf_1
*I *1118:X O *D sky130_fd_sc_hd__mux2_1
*CAP
1 *1119:A 4.51027e-05
2 *1118:X 4.51027e-05
3 *1119:A *1178:A 0.000140912
4 *1112:S *1119:A 5.63405e-05
*RES
1 *1118:X *1119:A 8.835 
*END

*D_NET *208 0.0005398
*CONN
*I *1122:A1_N I *D sky130_fd_sc_hd__a2bb2o_1
*I *1120:Y O *D sky130_fd_sc_hd__a21oi_1
*CAP
1 *1122:A1_N 0.000122009
2 *1120:Y 0.000122009
3 *1122:A1_N *1122:A2_N 0
4 *1122:A1_N *258:26 0.000112438
5 *1123:S *1122:A1_N 9.61248e-05
6 *186:130 *1122:A1_N 5.83121e-06
7 *197:55 *1122:A1_N 4.08514e-05
8 *201:40 *1122:A1_N 4.05358e-05
*RES
1 *1120:Y *1122:A1_N 10.17 
*END

*D_NET *209 0.000458239
*CONN
*I *1122:A2_N I *D sky130_fd_sc_hd__a2bb2o_1
*I *1121:X O *D sky130_fd_sc_hd__a31o_1
*CAP
1 *1122:A2_N 7.56359e-05
2 *1121:X 7.56359e-05
3 *1122:A2_N *257:18 4.82919e-05
4 *1121:A3 *1122:A2_N 0
5 *1122:A1_N *1122:A2_N 0
6 *1123:S *1122:A2_N 0
7 *186:130 *1122:A2_N 0.000198242
8 *197:55 *1122:A2_N 6.04333e-05
*RES
1 *1121:X *1122:A2_N 5.645 
*END

*D_NET *210 0.000372589
*CONN
*I *1123:A1 I *D sky130_fd_sc_hd__mux2_1
*I *1122:X O *D sky130_fd_sc_hd__a2bb2o_1
*CAP
1 *1123:A1 0.000104695
2 *1122:X 0.000104695
3 *197:55 *1123:A1 0.000163199
*RES
1 *1122:X *1123:A1 4.685 
*END

*D_NET *211 0.000599543
*CONN
*I *1124:A I *D sky130_fd_sc_hd__clkbuf_1
*I *1123:X O *D sky130_fd_sc_hd__mux2_1
*CAP
1 *1124:A 0.000255638
2 *1123:X 0.000255638
3 *1124:A *258:26 0
4 *201:20 *1124:A 8.8266e-05
*RES
1 *1123:X *1124:A 11.52 
*END

*D_NET *212 0.000501588
*CONN
*I *1127:B1 I *D sky130_fd_sc_hd__a22o_1
*I *1125:X O *D sky130_fd_sc_hd__or2_1
*CAP
1 *1127:B1 0.000149962
2 *1125:X 0.000149962
3 *1127:B1 *1127:B2 0.000118644
4 *1127:B1 *352:20 2.96334e-05
5 *201:53 *1127:B1 5.33874e-05
*RES
1 *1125:X *1127:B1 10.335 
*END

*D_NET *213 0.000850236
*CONN
*I *1127:B2 I *D sky130_fd_sc_hd__a22o_1
*I *1126:Y O *D sky130_fd_sc_hd__a21oi_1
*CAP
1 *1127:B2 0.000235314
2 *1126:Y 0.000235314
3 *1127:B2 *352:20 0.000122337
4 *1126:B1 *1127:B2 0.000124895
5 *1127:A2 *1127:B2 1.37328e-05
6 *1127:B1 *1127:B2 0.000118644
7 *192:56 *1127:B2 0
*RES
1 *1126:Y *1127:B2 11.835 
*END

*D_NET *214 0.000490735
*CONN
*I *1128:A1 I *D sky130_fd_sc_hd__mux2_1
*I *1127:X O *D sky130_fd_sc_hd__a22o_1
*CAP
1 *1128:A1 0.000102927
2 *1127:X 0.000102927
3 *1128:A1 *1127:A1 0
4 *1128:A1 *1129:A 7.23602e-05
5 *1128:A1 *352:20 8.51862e-05
6 *186:57 *1128:A1 0.000117832
7 *186:76 *1128:A1 9.50342e-06
*RES
1 *1127:X *1128:A1 9.375 
*END

*D_NET *215 0.00101885
*CONN
*I *1129:A I *D sky130_fd_sc_hd__clkbuf_1
*I *1128:X O *D sky130_fd_sc_hd__mux2_1
*CAP
1 *1129:A 0.000329135
2 *1128:X 0.000329135
3 *1129:A *1245:CLK 0
4 *1129:A *257:88 0.000133434
5 *1129:A *257:90 3.64998e-06
6 *1128:A1 *1129:A 7.23602e-05
7 *186:44 *1129:A 7.55391e-05
8 *186:57 *1129:A 2.42236e-05
9 *192:48 *1129:A 5.13692e-05
*RES
1 *1128:X *1129:A 13.005 
*END

*D_NET *216 0.000327732
*CONN
*I *1132:B1 I *D sky130_fd_sc_hd__a22o_1
*I *1130:X O *D sky130_fd_sc_hd__a31o_1
*CAP
1 *1132:B1 9.99661e-05
2 *1130:X 9.99661e-05
3 *1132:B1 *246:85 0
4 *1132:B1 *255:51 0.0001278
*RES
1 *1130:X *1132:B1 4.7 
*END

*D_NET *217 0.000719694
*CONN
*I *1132:B2 I *D sky130_fd_sc_hd__a22o_1
*I *1131:Y O *D sky130_fd_sc_hd__nor2_1
*CAP
1 *1132:B2 0.000221944
2 *1131:Y 0.000221944
3 *1132:B2 *1106:D 0.000116568
4 *1132:B2 *246:105 0
5 *1132:B2 *253:71 4.18603e-06
6 *1132:B2 *255:57 0.0001043
7 *1131:B *1132:B2 5.0751e-05
*RES
1 *1131:Y *1132:B2 11.76 
*END

*D_NET *218 0.000468626
*CONN
*I *1133:A1 I *D sky130_fd_sc_hd__mux2_1
*I *1132:X O *D sky130_fd_sc_hd__a22o_1
*CAP
1 *1133:A1 0.000110047
2 *1132:X 0.000110047
3 *1133:A1 *1130:B1 6.16876e-05
4 *1133:A1 *247:107 0.000116158
5 *1133:A1 *267:56 0
6 *203:123 *1133:A1 7.06865e-05
*RES
1 *1132:X *1133:A1 9.375 
*END

*D_NET *219 0.000269361
*CONN
*I *1134:A I *D sky130_fd_sc_hd__clkbuf_1
*I *1133:X O *D sky130_fd_sc_hd__mux2_1
*CAP
1 *1134:A 0.000124744
2 *1133:X 0.000124744
3 *1134:A *1133:A0 1.9872e-05
4 *1133:S *1134:A 0
*RES
1 *1133:X *1134:A 9.03 
*END

*D_NET *220 0.000223612
*CONN
*I *1137:A1_N I *D sky130_fd_sc_hd__a2bb2o_1
*I *1135:Y O *D sky130_fd_sc_hd__a21oi_1
*CAP
1 *1137:A1_N 6.60699e-05
2 *1135:Y 6.60699e-05
3 *1137:A1_N *1135:A2 1.85674e-05
4 *203:123 *1137:A1_N 7.29049e-05
*RES
1 *1135:Y *1137:A1_N 4.7 
*END

*D_NET *221 0.000656064
*CONN
*I *1137:A2_N I *D sky130_fd_sc_hd__a2bb2o_1
*I *1136:X O *D sky130_fd_sc_hd__a31o_1
*CAP
1 *1137:A2_N 0.000244698
2 *1136:X 0.000244698
3 *1137:A2_N *253:58 4.21973e-05
4 *1137:A2_N *253:69 0.000124471
5 *1137:A2_N *254:14 0
6 *1137:A2_N *254:20 0
*RES
1 *1136:X *1137:A2_N 10.665 
*END

*D_NET *222 0.000773833
*CONN
*I *1138:A1 I *D sky130_fd_sc_hd__mux2_1
*I *1137:X O *D sky130_fd_sc_hd__a2bb2o_1
*CAP
1 *1138:A1 0.000240782
2 *1137:X 0.000240782
3 *1138:A1 *1193:B 0
4 *1138:A1 *246:105 0
5 *1138:A1 *254:12 0
6 *1138:A1 *255:16 8.6076e-05
7 *1138:A1 *255:28 0.000137154
8 *1138:S *1138:A1 6.90384e-05
*RES
1 *1137:X *1138:A1 11.925 
*END

*D_NET *223 0.000251609
*CONN
*I *1139:A I *D sky130_fd_sc_hd__clkbuf_1
*I *1138:X O *D sky130_fd_sc_hd__mux2_1
*CAP
1 *1139:A 3.20073e-05
2 *1138:X 3.20073e-05
3 *1139:A *1192:A 6.74079e-05
4 *1139:A *254:12 0.000120186
*RES
1 *1138:X *1139:A 8.58 
*END

*D_NET *224 0.0015083
*CONN
*I *1141:B I *D sky130_fd_sc_hd__xnor2_1
*I *1170:B1 I *D sky130_fd_sc_hd__o21ai_1
*I *1140:Y O *D sky130_fd_sc_hd__nand2_1
*CAP
1 *1141:B 0.000509944
2 *1170:B1 5.93758e-05
3 *1140:Y 3.5536e-05
4 *224:6 0.000604856
5 *1141:B *1241:CLK 0.000155056
6 *1170:B1 *1328:A 1.14169e-05
7 *1145:S *1170:B1 5.12969e-06
8 *1168:S *1141:B 4.88478e-05
9 *192:56 *1170:B1 1.14169e-05
10 *192:56 *224:6 2.01504e-05
11 *192:60 *1170:B1 4.65706e-05
*RES
1 *1140:Y *224:6 2.05 
2 *224:6 *1170:B1 3.025 
3 *224:6 *1141:B 13.895 
*END

*D_NET *225 0.000873133
*CONN
*I *1142:A1 I *D sky130_fd_sc_hd__mux2_1
*I *1141:Y O *D sky130_fd_sc_hd__xnor2_1
*CAP
1 *1142:A1 0.000242176
2 *1141:Y 0.000242176
3 *1142:A1 *1241:CLK 0
4 *1168:S *1142:A1 0.000316421
5 *201:81 *1142:A1 7.23602e-05
*RES
1 *1141:Y *1142:A1 10.935 
*END

*D_NET *226 0.00056903
*CONN
*I *1143:A I *D sky130_fd_sc_hd__clkbuf_1
*I *1142:X O *D sky130_fd_sc_hd__mux2_1
*CAP
1 *1143:A 0.000284515
2 *1142:X 0.000284515
3 *1143:A *1191:B 0
4 *1143:A *1192:B 0
5 *1143:A *1241:CLK 0
6 *1143:A *1242:CLK 0
*RES
1 *1142:X *1143:A 11.415 
*END

*D_NET *227 0.000796239
*CONN
*I *1170:A1 I *D sky130_fd_sc_hd__o21ai_1
*I *1145:A1 I *D sky130_fd_sc_hd__mux2_1
*I *1144:Y O *D sky130_fd_sc_hd__inv_2
*CAP
1 *1170:A1 2.34463e-05
2 *1145:A1 4.14736e-05
3 *1144:Y 7.63581e-05
4 *227:12 0.000141278
5 *1145:A1 *1328:A 2.49909e-05
6 *1170:A1 *1328:A 4.60123e-05
7 *227:12 *1144:A 0.000137571
8 *227:12 *1328:A 0.000137571
9 *227:12 *352:20 4.82919e-05
10 *1145:S *1145:A1 4.66108e-05
11 *1145:S *1170:A1 7.26348e-05
*RES
1 *1144:Y *227:12 7.685 
2 *227:12 *1145:A1 2.395 
3 *227:12 *1170:A1 2.395 
*END

*D_NET *228 0.00011796
*CONN
*I *1146:A1 I *D sky130_fd_sc_hd__mux2_1
*I *1145:X O *D sky130_fd_sc_hd__mux2_1
*CAP
1 *1146:A1 4.45868e-05
2 *1145:X 4.45868e-05
3 *1146:A1 *1145:A0 0
4 *1146:A1 *1333:A 2.87867e-05
*RES
1 *1145:X *1146:A1 8.07 
*END

*D_NET *229 0.000232448
*CONN
*I *1147:A I *D sky130_fd_sc_hd__clkbuf_1
*I *1146:X O *D sky130_fd_sc_hd__mux2_1
*CAP
1 *1147:A 7.71303e-05
2 *1146:X 7.71303e-05
3 *1147:A *1333:A 7.81876e-05
*RES
1 *1146:X *1147:A 8.835 
*END

*D_NET *230 0.00439089
*CONN
*I *1149:S I *D sky130_fd_sc_hd__mux2_1
*I *1160:A3 I *D sky130_fd_sc_hd__o32a_1
*I *1148:Y O *D sky130_fd_sc_hd__nand2_1
*CAP
1 *1149:S 0.00115214
2 *1160:A3 0.000161372
3 *1148:Y 3.43202e-05
4 *230:6 0.00134783
5 *1149:S *1164:B1 0.000331142
6 *1149:S *1175:A0 0.000558669
7 *1149:S *1240:CLK 2.97004e-06
8 *1149:S *1269:D 0
9 *1149:S *1288:A 1.03833e-05
10 *1149:S *1350:A 0
11 *1149:S *267:23 6.36104e-05
12 *1149:S *267:56 0.000101322
13 *1149:S *267:69 0.000175463
14 *1149:S *308:12 1.94892e-05
15 *1160:A3 *1160:A1 9.79231e-06
16 *1160:A3 *1160:A2 3.49436e-05
17 *1160:B2 *1160:A3 5.80232e-06
18 *1164:A2 *1149:S 0.000126561
19 *1164:A2 *1160:A3 8.40269e-05
20 *1244:D *1149:S 5.2089e-05
21 *1244:RESET_B *1149:S 0
22 *154:77 *1160:A3 1.16578e-05
23 *154:77 *230:6 3.66286e-05
24 *154:96 *1149:S 0
25 *192:16 *1149:S 7.06865e-05
*RES
1 *1148:Y *230:6 2.05 
2 *230:6 *1160:A3 4.27 
3 *230:6 *1149:S 31.715 
*END

*D_NET *231 0.00044609
*CONN
*I *1150:A I *D sky130_fd_sc_hd__clkbuf_1
*I *1149:X O *D sky130_fd_sc_hd__mux2_1
*CAP
1 *1150:A 0.00018636
2 *1149:X 0.00018636
3 *1150:A *1240:CLK 0
4 *1150:A *267:73 7.33706e-05
*RES
1 *1149:X *1150:A 9.975 
*END

*D_NET *232 0.000939602
*CONN
*I *1152:A1 I *D sky130_fd_sc_hd__a31o_1
*I *1151:Y O *D sky130_fd_sc_hd__inv_2
*CAP
1 *1152:A1 0.000246287
2 *1151:Y 0.000246287
3 *1152:A1 *1152:B1 0.000423999
4 *1152:A3 *1152:A1 2.30292e-05
*RES
1 *1151:Y *1152:A1 7.805 
*END

*D_NET *233 0.00029903
*CONN
*I *1154:B1 I *D sky130_fd_sc_hd__a31o_1
*I *1153:X O *D sky130_fd_sc_hd__o31a_1
*CAP
1 *1154:B1 3.16897e-05
2 *1153:X 3.16897e-05
3 *1154:B1 *1154:A1 0.000117825
4 *1154:B1 *305:16 0.000117825
*RES
1 *1153:X *1154:B1 8.58 
*END

*D_NET *234 0.000908194
*CONN
*I *1157:B1 I *D sky130_fd_sc_hd__a22o_1
*I *1156:X O *D sky130_fd_sc_hd__o211a_1
*CAP
1 *1157:B1 0.000189492
2 *1156:X 0.000189492
3 *1157:B1 *1072:A1 7.18452e-06
4 *1157:B1 *1156:A1 0.000116158
5 *1157:B1 *1157:A1 2.75229e-05
6 *1157:B1 *1253:CLK 7.21296e-06
7 *1157:B1 *310:12 5.64143e-05
8 *1088:S *1157:B1 9.37731e-05
9 *1089:A *1157:B1 4.94326e-05
10 *1157:A2 *1157:B1 4.82863e-05
11 *154:14 *1157:B1 0
12 *154:20 *1157:B1 0.000123225
*RES
1 *1156:X *1157:B1 11.955 
*END

*D_NET *235 0.000508381
*CONN
*I *1161:A I *D sky130_fd_sc_hd__inv_2
*I *1160:X O *D sky130_fd_sc_hd__o32a_1
*CAP
1 *1161:A 0.000245397
2 *1160:X 0.000245397
3 *1161:A *1160:A1 1.75875e-05
*RES
1 *1160:X *1161:A 6.77 
*END

*D_NET *236 0.00142776
*CONN
*I *1165:B1 I *D sky130_fd_sc_hd__a2bb2o_1
*I *1163:D I *D sky130_fd_sc_hd__or4_1
*I *1162:Y O *D sky130_fd_sc_hd__nand3_1
*CAP
1 *1165:B1 0.000113644
2 *1163:D 8.00308e-05
3 *1162:Y 0.000283923
4 *236:14 0.000477598
5 *1163:D *1221:B 1.07797e-05
6 *1163:D *250:75 8.65905e-05
7 *1163:D *250:91 4.01548e-05
8 *1165:B1 *237:10 0
9 *1165:B1 *250:91 0.000106344
10 *236:14 *1162:A 1.79483e-05
11 *236:14 *251:61 4.85754e-05
12 *1057:A2 *236:14 0.000128133
13 *1057:B1 *236:14 1.98775e-05
14 *1266:RESET_B *1165:B1 2.69102e-06
15 *156:51 *236:14 1.14673e-05
*RES
1 *1162:Y *236:14 5.6499 
2 *236:14 *1163:D 5.1375 
3 *236:14 *1165:B1 5.9175 
*END

*D_NET *237 0.00376
*CONN
*I *1164:B1 I *D sky130_fd_sc_hd__a22o_1
*I *1165:A2_N I *D sky130_fd_sc_hd__a2bb2o_1
*I *1163:X O *D sky130_fd_sc_hd__or4_1
*CAP
1 *1164:B1 0.000539236
2 *1165:A2_N 0.000115618
3 *1163:X 0.000151713
4 *237:10 0.000806567
5 *1164:B1 *1148:A 0.000358243
6 *1164:B1 *1160:A2 0
7 *1164:B1 *1270:CLK 2.16917e-05
8 *1164:B1 *247:22 4.53896e-05
9 *1100:B *1164:B1 1.7902e-05
10 *1110:C1 *1164:B1 7.06865e-05
11 *1111:A1 *1164:B1 0.000304247
12 *1111:A1 *237:10 7.87426e-05
13 *1111:A2 *237:10 3.99039e-05
14 *1149:S *1164:B1 0.000331142
15 *1164:A1 *1164:B1 4.89295e-05
16 *1164:A2 *1164:B1 8.35068e-05
17 *1165:A1_N *1164:B1 0.000251595
18 *1165:A1_N *1165:A2_N 4.77757e-05
19 *1165:A1_N *237:10 5.33085e-05
20 *1165:B1 *237:10 0
21 *1268:D *1165:A2_N 3.64998e-06
22 *1270:D *1164:B1 0.000122325
23 *154:53 *1164:B1 0.000249928
24 *154:96 *1164:B1 0
25 *192:16 *1164:B1 1.7902e-05
*RES
1 *1163:X *237:10 6.195 
2 *237:10 *1165:A2_N 5.46 
3 *237:10 *1164:B1 18.21 
*END

*D_NET *238 0.000614766
*CONN
*I *1167:A2 I *D sky130_fd_sc_hd__o21a_1
*I *1166:Y O *D sky130_fd_sc_hd__nor2_1
*CAP
1 *1167:A2 0.000222012
2 *1166:Y 0.000222012
3 *1167:A2 *1152:A2 2.93678e-05
4 *1167:A2 *1167:A1 0.000141374
*RES
1 *1166:Y *1167:A2 10.35 
*END

*D_NET *239 0.000189331
*CONN
*I *1169:A I *D sky130_fd_sc_hd__clkbuf_1
*I *1168:X O *D sky130_fd_sc_hd__mux2_1
*CAP
1 *1169:A 6.09617e-05
2 *1168:X 6.09617e-05
3 *1169:A *1333:A 6.74079e-05
*RES
1 *1168:X *1169:A 8.58 
*END

*D_NET *240 0.00699831
*CONN
*I *1172:A I *D sky130_fd_sc_hd__buf_1
*I *1171:X O *D sky130_fd_sc_hd__mux2_1
*CAP
1 *1172:A 0.00271323
2 *1171:X 0.00271323
3 *1172:A *1155:B1 7.06841e-05
4 *1172:A *1159:B1 0.000310789
5 *1172:A *1174:A 0.000458999
6 *1172:A *1278:CLK 3.03684e-05
7 *1172:A *1288:A 6.00201e-05
8 *1172:A *1289:A 1.83756e-05
9 *1172:A *268:6 0.000139438
10 *1172:A *268:56 0.000105508
11 *1172:A *280:10 8.65961e-05
12 *1159:A3 *1172:A 3.64226e-05
13 *1278:RESET_B *1172:A 4.19006e-05
14 *1308:A *1172:A 8.87364e-05
15 *1312:A *1172:A 0.000124007
*RES
1 *1171:X *1172:A 41.075 
*END

*D_NET *241 0.00629631
*CONN
*I *1174:A I *D sky130_fd_sc_hd__clkbuf_1
*I *1173:X O *D sky130_fd_sc_hd__mux2_1
*CAP
1 *1174:A 0.00236987
2 *1173:X 0.00236987
3 *1174:A *1021:A1 4.6009e-05
4 *1174:A *1181:A 0
5 *1174:A *1269:CLK 8.49205e-05
6 *1174:A *1269:D 0.000118207
7 *1174:A *1283:A 4.99619e-05
8 *1174:A *1285:A 5.85254e-05
9 *1174:A *358:8 0.000128645
10 *1174:A *358:25 6.61704e-05
11 *1021:A0 *1174:A 0.000107254
12 *1021:S *1174:A 4.20934e-05
13 *1022:A *1174:A 1.70935e-05
14 *1172:A *1174:A 0.000458999
15 *1272:RESET_B *1174:A 0.000158066
16 *1278:D *1174:A 0.000127329
17 *1278:RESET_B *1174:A 9.33062e-05
*RES
1 *1173:X *1174:A 47.94 
*END

*D_NET *242 0.00682992
*CONN
*I *1176:A I *D sky130_fd_sc_hd__clkbuf_1
*I *1175:X O *D sky130_fd_sc_hd__mux2_1
*CAP
1 *1176:A 0.00233892
2 *1175:X 0.00233892
3 *1176:A *1028:A1 4.39319e-05
4 *1176:A *1235:A 0.000198945
5 *1176:A *1279:CLK 4.05358e-05
6 *1176:A *1283:A 0
7 *1176:A *1285:A 3.45588e-05
8 *1176:A *1304:A 0.000198939
9 *1176:A *1331:A 6.54766e-05
10 *1176:A *246:85 3.23663e-05
11 *1176:A *247:79 0.000214272
12 *1176:A *264:12 0.000162311
13 *1015:B *1176:A 0.000313857
14 *1031:A *1176:A 3.73232e-05
15 *1053:A *1176:A 0.000163199
16 *1239:RESET_B *1176:A 9.40111e-05
17 *1265:SET_B *1176:A 4.99619e-05
18 *1279:D *1176:A 0.000166806
19 *132:128 *1176:A 0.000158965
20 *134:119 *1176:A 0
21 *138:47 *1176:A 7.63125e-05
22 *138:49 *1176:A 0.000100308
*RES
1 *1175:X *1176:A 47.31 
*END

*D_NET *243 0.00444181
*CONN
*I *1178:A I *D sky130_fd_sc_hd__clkbuf_1
*I *1177:X O *D sky130_fd_sc_hd__mux2_1
*CAP
1 *1178:A 0.00172222
2 *1177:X 0.00172222
3 *1178:A *1104:A1 0
4 *1178:A *1112:A0 0
5 *1178:A *1177:A0 9.60582e-07
6 *1178:A *1334:A 0.000533741
7 *1178:A *259:25 0
8 *1178:A *259:29 2.33678e-05
9 *1178:A *265:79 0
10 oaddr[1] *1178:A 0
11 *1109:S *1178:A 0
12 *1112:S *1178:A 0
13 *1113:A *1178:A 4.05358e-05
14 *1117:B1 *1178:A 0.000141592
15 *1118:A1 *1178:A 4.05358e-05
16 *1119:A *1178:A 0.000140912
17 *1247:D *1178:A 3.89528e-05
18 *1248:D *1178:A 3.67779e-05
19 *1263:D *1178:A 0
*RES
1 *1177:X *1178:A 40.53 
*END

*D_NET *244 0.00610758
*CONN
*I *1181:A I *D sky130_fd_sc_hd__clkbuf_1
*I *1180:X O *D sky130_fd_sc_hd__or2_1
*CAP
1 *1181:A 0.00174105
2 *1180:X 0.00174105
3 *1181:A *1011:A1 0.000532697
4 *1181:A *281:10 0.000140912
5 *1021:A0 *1181:A 0
6 *1022:A *1181:A 0
7 *1174:A *1181:A 0
8 *1237:RESET_B *1181:A 0.000311758
9 *1278:D *1181:A 0
10 *1279:RESET_B *1181:A 0
11 *1280:D *1181:A 0.000118527
12 *132:20 *1181:A 0.000328001
13 *132:42 *1181:A 0.000220885
14 *132:59 *1181:A 0.000201247
15 *132:93 *1181:A 0.000131654
16 *134:60 *1181:A 0.000239813
17 *134:67 *1181:A 0.000237205
18 *134:76 *1181:A 0.000162777
19 *136:97 *1181:A 0
*RES
1 *1180:X *1181:A 44.43 
*END

*D_NET *245 0.000607536
*CONN
*I *1183:A I *D sky130_fd_sc_hd__clkbuf_1
*I *1182:X O *D sky130_fd_sc_hd__or2_1
*CAP
1 *1183:A 0.000228771
2 *1182:X 0.000228771
3 *1183:A *355:48 9.36617e-05
4 *1240:RESET_B *1183:A 5.63318e-05
5 *1274:D *1183:A 0
*RES
1 *1182:X *1183:A 11.37 
*END

*D_NET *246 0.0173582
*CONN
*I *1193:A I *D sky130_fd_sc_hd__nor2_1
*I *1192:A I *D sky130_fd_sc_hd__nor2_1
*I *1191:A I *D sky130_fd_sc_hd__nor2_1
*I *1194:A I *D sky130_fd_sc_hd__nor2_1
*I *1190:A I *D sky130_fd_sc_hd__nor2_1
*I *1195:A I *D sky130_fd_sc_hd__nor2_1
*I *1189:A I *D sky130_fd_sc_hd__nor2_1
*I *1187:A I *D sky130_fd_sc_hd__nor2_1
*I *1186:A I *D sky130_fd_sc_hd__nor2_1
*I *1188:A I *D sky130_fd_sc_hd__nor2_1
*I *1184:X O *D sky130_fd_sc_hd__clkbuf_4
*CAP
1 *1193:A 3.55506e-05
2 *1192:A 0.000100965
3 *1191:A 0.00034926
4 *1194:A 0
5 *1190:A 0.000214099
6 *1195:A 0
7 *1189:A 0.000553449
8 *1187:A 0
9 *1186:A 1.71692e-05
10 *1188:A 1.92299e-05
11 *1184:X 1.17533e-05
12 *246:109 0.000648177
13 *246:105 0.000545488
14 *246:85 0.000799622
15 *246:75 0.00118354
16 *246:66 0.000413024
17 *246:48 0.000781619
18 *246:33 0.000492238
19 *246:24 0.00184243
20 *246:8 0.00171505
21 *1186:A *1186:B 5.4155e-06
22 *1186:A *247:41 4.00541e-06
23 *1188:A *247:26 5.12969e-06
24 *1189:A *1028:A1 0
25 *1189:A *1189:B 0.000583921
26 *1189:A *1239:D 4.70343e-05
27 *1190:A *1190:B 0.000564273
28 *1190:A *1229:A 0
29 *1190:A *355:48 0.000390994
30 *1191:A *1191:B 0.000203045
31 *1191:A *1192:B 0
32 *1191:A *254:12 5.61935e-05
33 *1191:A *254:14 4.43871e-06
34 *1191:A *254:20 0
35 *1192:A *1192:B 0
36 *1192:A *254:12 3.85884e-05
37 *246:24 *1167:A1 8.53113e-06
38 *246:24 *1180:B 0
39 *246:24 *247:22 0.00134499
40 *246:24 *247:26 4.40028e-05
41 *246:24 *247:64 8.08153e-06
42 *246:24 *293:46 4.31921e-05
43 *246:24 *359:91 9.37731e-05
44 *246:33 *247:26 0.00021242
45 *246:33 *247:41 5.30673e-05
46 *246:48 *1189:B 5.53249e-06
47 *246:48 *247:41 0.000159625
48 *246:66 *247:64 0.000133956
49 *246:66 *293:46 0.00016295
50 *246:75 *247:64 4.18603e-06
51 *246:75 *247:75 0.0002993
52 *246:75 *255:57 0.000429843
53 *246:75 *293:46 0.000141217
54 *246:85 *1130:B1 2.45351e-05
55 *246:85 *1175:A0 4.66108e-05
56 *246:85 *247:79 0.000866709
57 *246:85 *255:51 0
58 *246:105 *1135:A1 0
59 *246:105 *1135:A2 0
60 *246:105 *1193:B 1.52184e-05
61 *246:105 *247:107 0.000194157
62 *246:105 *253:71 0
63 *246:105 *255:28 0
64 *246:105 *255:57 2.30797e-05
65 *246:109 *247:107 8.49205e-05
66 *246:109 *247:111 0.000647641
67 *246:109 *255:16 0.000200091
68 *1099:A *246:8 2.75145e-05
69 *1099:A *246:24 6.38722e-05
70 *1131:B *246:75 1.07797e-05
71 *1132:A2 *246:75 7.06865e-05
72 *1132:A2 *246:85 2.49909e-05
73 *1132:A2 *246:105 5.23362e-05
74 *1132:B1 *246:85 0
75 *1132:B2 *246:105 0
76 *1138:A1 *246:105 0
77 *1138:S *246:109 4.82919e-05
78 *1139:A *1192:A 6.74079e-05
79 *1176:A *246:85 3.23663e-05
80 *1184:A *246:24 2.97561e-05
81 *1237:RESET_B *1189:A 0
82 *1238:RESET_B *246:24 8.53113e-06
83 *1239:RESET_B *1189:A 0
84 *186:130 *246:24 0
85 *203:20 *246:8 4.82863e-05
*RES
1 *1184:X *246:8 4.05 
2 *246:8 *246:24 27.885 
3 *246:24 *1188:A 1.96 
4 *246:24 *246:33 4.245 
5 *246:33 *1186:A 1.96 
6 *246:33 *246:48 6.08 
7 *246:48 *1187:A 3.6 
8 *246:48 *1189:A 15.945 
9 *246:8 *246:66 3.93 
10 *246:66 *1195:A 3.6 
11 *246:66 *246:75 9.54 
12 *246:75 *246:85 12.59 
13 *246:85 *1190:A 13.865 
14 *246:85 *1194:A 1.6 
15 *246:75 *246:105 8.48 
16 *246:105 *246:109 8.66 
17 *246:109 *1191:A 10.47 
18 *246:109 *1192:A 6 
19 *246:105 *1193:A 2.215 
*END

*D_NET *247 0.0179105
*CONN
*I *1193:B I *D sky130_fd_sc_hd__nor2_1
*I *1192:B I *D sky130_fd_sc_hd__nor2_1
*I *1191:B I *D sky130_fd_sc_hd__nor2_1
*I *1194:B I *D sky130_fd_sc_hd__nor2_1
*I *1190:B I *D sky130_fd_sc_hd__nor2_1
*I *1195:B I *D sky130_fd_sc_hd__nor2_1
*I *1188:B I *D sky130_fd_sc_hd__nor2_1
*I *1189:B I *D sky130_fd_sc_hd__nor2_1
*I *1187:B I *D sky130_fd_sc_hd__nor2_1
*I *1186:B I *D sky130_fd_sc_hd__nor2_1
*I *1185:X O *D sky130_fd_sc_hd__clkbuf_4
*CAP
1 *1193:B 5.16661e-05
2 *1192:B 0.000192101
3 *1191:B 0.000196786
4 *1194:B 0
5 *1190:B 0.000378123
6 *1195:B 2.43002e-05
7 *1188:B 0
8 *1189:B 0.000336467
9 *1187:B 0
10 *1186:B 1.88809e-05
11 *1185:X 0.000150242
12 *247:111 0.00095293
13 *247:107 0.00100678
14 *247:79 0.0005819
15 *247:75 0.000937025
16 *247:64 0.000520532
17 *247:41 0.000490759
18 *247:26 0.000409548
19 *247:22 0.00085865
20 *247:10 0.000926575
21 *1189:B *1219:A 0.000141606
22 *1189:B *1237:D 7.4027e-05
23 *1189:B *1284:A 0.000157695
24 *1189:B *268:56 0.000554876
25 *1190:B *1350:A 0
26 *1191:B *1241:CLK 0
27 *1192:B *267:79 8.65961e-05
28 *247:22 *1270:CLK 8.40269e-05
29 *247:22 *359:81 0.000155995
30 *247:41 *1284:A 8.89829e-05
31 *247:79 *1130:B1 0.000210536
32 *247:107 *255:16 3.54025e-05
33 *247:107 *267:56 0
34 *247:107 *267:69 0
35 *1099:A *247:22 8.65961e-05
36 *1132:A2 *247:75 6.10014e-05
37 *1133:A1 *247:107 0.000116158
38 *1133:S *247:107 0.00011852
39 *1138:A1 *1193:B 0
40 *1143:A *1191:B 0
41 *1143:A *1192:B 0
42 *1164:A1 *247:22 0.000100868
43 *1164:A2 *247:22 2.10152e-05
44 *1164:B1 *247:22 4.53896e-05
45 *1176:A *247:79 0.000214272
46 *1184:A *247:10 9.30787e-05
47 *1184:A *247:64 4.21314e-05
48 *1186:A *1186:B 5.4155e-06
49 *1186:A *247:41 4.00541e-06
50 *1188:A *247:26 5.12969e-06
51 *1189:A *1189:B 0.000583921
52 *1190:A *1190:B 0.000564273
53 *1191:A *1191:B 0.000203045
54 *1191:A *1192:B 0
55 *1192:A *1192:B 0
56 *1238:RESET_B *247:22 1.31297e-05
57 *1238:RESET_B *247:26 6.69608e-06
58 *1244:RESET_B *1190:B 0.000140905
59 *1245:RESET_B *247:64 0.000139238
60 *1270:D *247:22 1.47347e-05
61 *133:90 *247:22 0.000312276
62 *133:101 *247:22 7.40446e-05
63 *192:16 *247:10 3.18219e-05
64 *192:16 *247:64 3.18137e-05
65 *192:48 *1195:B 2.75145e-05
66 *201:14 *247:10 0.000162311
67 *201:81 *1191:B 0.000383691
68 *203:12 *247:75 0.000174065
69 *203:14 *247:75 8.15598e-05
70 *203:18 *247:64 9.50036e-05
71 *203:18 *247:75 0.0001032
72 *203:123 *247:75 0.000121876
73 *203:123 *247:107 3.50033e-05
74 *246:24 *247:22 0.00134499
75 *246:24 *247:26 4.40028e-05
76 *246:24 *247:64 8.08153e-06
77 *246:33 *247:26 0.00021242
78 *246:33 *247:41 5.30673e-05
79 *246:48 *1189:B 5.53249e-06
80 *246:48 *247:41 0.000159625
81 *246:66 *247:64 0.000133956
82 *246:75 *247:64 4.18603e-06
83 *246:75 *247:75 0.0002993
84 *246:85 *247:79 0.000866709
85 *246:105 *1193:B 1.52184e-05
86 *246:105 *247:107 0.000194157
87 *246:109 *247:107 8.49205e-05
88 *246:109 *247:111 0.000647641
*RES
1 *1185:X *247:10 6.21 
2 *247:10 *247:22 20.63 
3 *247:22 *247:26 4.605 
4 *247:26 *1186:B 1.96 
5 *247:26 *247:41 6.08 
6 *247:41 *1187:B 3.6 
7 *247:41 *1189:B 15.945 
8 *247:22 *1188:B 1.6 
9 *247:10 *247:64 4.695 
10 *247:64 *1195:B 4.05 
11 *247:64 *247:75 10.05 
12 *247:75 *247:79 10.04 
13 *247:79 *1190:B 14.87 
14 *247:79 *1194:B 1.6 
15 *247:75 *247:107 9.545 
16 *247:107 *247:111 9.35 
17 *247:111 *1191:B 9.315 
18 *247:111 *1192:B 7.05 
19 *247:107 *1193:B 6.47 
*END

*D_NET *248 0.0163135
*CONN
*I *1198:A I *D sky130_fd_sc_hd__nor2_1
*I *1199:A I *D sky130_fd_sc_hd__nor2_1
*I *1200:A I *D sky130_fd_sc_hd__nor2_1
*I *1207:A I *D sky130_fd_sc_hd__nor2_1
*I *1201:A I *D sky130_fd_sc_hd__nor2_1
*I *1204:A I *D sky130_fd_sc_hd__nor2_1
*I *1205:A I *D sky130_fd_sc_hd__nor2_1
*I *1202:A I *D sky130_fd_sc_hd__nor2_1
*I *1203:A I *D sky130_fd_sc_hd__nor2_1
*I *1206:A I *D sky130_fd_sc_hd__nor2_1
*I *1196:X O *D sky130_fd_sc_hd__clkbuf_4
*CAP
1 *1198:A 0.00010638
2 *1199:A 5.58629e-05
3 *1200:A 0.000267515
4 *1207:A 0
5 *1201:A 0
6 *1204:A 4.78062e-05
7 *1205:A 0.000354297
8 *1202:A 0
9 *1203:A 9.05169e-05
10 *1206:A 1.90984e-05
11 *1196:X 0
12 *248:116 0.000343213
13 *248:73 0.000866956
14 *248:65 0.000986401
15 *248:41 0.000160798
16 *248:35 0.00181638
17 *248:20 0.0022119
18 *248:12 0.00103852
19 *248:10 0.000463034
20 *248:6 0.000306222
21 *1198:A *1198:B 0.000197599
22 *1199:A *1199:B 0.000136829
23 *1199:A *360:18 8.23457e-05
24 *1200:A *1268:CLK 5.21706e-05
25 *1200:A *265:71 0
26 *1200:A *265:73 6.6925e-05
27 *1203:A *1202:B 1.49498e-05
28 *1203:A *249:89 2.59835e-05
29 *1203:A *249:100 3.29384e-05
30 *1204:A *1204:B 4.77757e-05
31 *1205:A *1205:B 0.000683348
32 *1205:A *249:122 3.09233e-05
33 *1205:A *270:75 0
34 *1206:A *249:33 4.00541e-06
35 *248:10 *1268:CLK 0.000298449
36 *248:10 *249:59 0.000365334
37 *248:10 *250:18 0
38 *248:12 *249:33 0
39 *248:12 *249:59 4.5783e-05
40 *248:12 *250:18 0
41 *248:12 *265:71 0
42 *248:20 *1060:A0 0.000125257
43 *248:20 *1060:A1 2.16833e-05
44 *248:20 *1217:B 0.000272978
45 *248:20 *1300:A 5.33085e-05
46 *248:20 *1342:A 8.59365e-05
47 *248:20 *249:33 7.68414e-06
48 *248:20 *265:37 0
49 *248:20 *265:54 0
50 *248:20 *265:71 0
51 *248:20 *301:23 2.05056e-05
52 *248:35 *1206:B 4.94457e-05
53 *248:35 *249:14 0.000851244
54 *248:35 *249:33 1.12578e-05
55 *248:35 *249:89 0.00106256
56 *248:41 *1349:A 2.08372e-05
57 *248:41 *249:89 2.75229e-05
58 *248:65 *1349:A 0.00016506
59 *248:73 *1043:C 0.000139933
60 *248:73 *249:122 0
61 *248:73 *269:10 0.00035893
62 *248:73 *270:12 0
63 *248:73 *270:75 2.03321e-05
64 *248:73 *271:47 0
65 *248:116 *1198:B 4.9968e-05
66 *248:116 *1268:CLK 5.33085e-05
67 *248:116 *249:59 0.000355816
68 *1083:A *248:20 0
69 *1249:RESET_B *248:73 6.65066e-05
70 *1255:D *248:20 4.70343e-05
71 *1255:RESET_B *248:20 0.000156155
72 *131:14 *1199:A 0.000313846
73 *131:14 *248:116 0
74 *131:16 *248:116 0
75 *133:26 *1206:A 0
76 *133:26 *248:20 6.76188e-05
77 *133:26 *248:35 3.00381e-05
78 *133:34 *248:20 0.000157968
79 *154:14 *1205:A 0
80 *165:28 *248:20 0.000500538
81 *186:10 *1198:A 0
*RES
1 *1196:X *248:6 3.6 
2 *248:6 *248:10 4.635 
3 *248:10 *248:12 1.38 
4 *248:12 *248:20 22.175 
5 *248:20 *1206:A 1.96 
6 *248:20 *248:35 21.455 
7 *248:35 *248:41 3.32 
8 *248:41 *1203:A 3.46 
9 *248:41 *1202:A 1.6 
10 *248:35 *248:65 10.46 
11 *248:65 *248:73 13.75 
12 *248:73 *1205:A 13.865 
13 *248:73 *1204:A 2.395 
14 *248:65 *1201:A 1.6 
15 *248:12 *1207:A 3.6 
16 *248:10 *1200:A 7.08 
17 *248:6 *248:116 4.695 
18 *248:116 *1199:A 6.465 
19 *248:116 *1198:A 6 
*END

*D_NET *249 0.0168391
*CONN
*I *1205:B I *D sky130_fd_sc_hd__nor2_1
*I *1204:B I *D sky130_fd_sc_hd__nor2_1
*I *1201:B I *D sky130_fd_sc_hd__nor2_1
*I *1203:B I *D sky130_fd_sc_hd__nor2_1
*I *1202:B I *D sky130_fd_sc_hd__nor2_1
*I *1198:B I *D sky130_fd_sc_hd__nor2_1
*I *1199:B I *D sky130_fd_sc_hd__nor2_1
*I *1200:B I *D sky130_fd_sc_hd__nor2_1
*I *1207:B I *D sky130_fd_sc_hd__nor2_1
*I *1206:B I *D sky130_fd_sc_hd__nor2_1
*I *1197:X O *D sky130_fd_sc_hd__clkbuf_4
*CAP
1 *1205:B 0.000356734
2 *1204:B 9.61273e-05
3 *1201:B 7.61706e-05
4 *1203:B 0
5 *1202:B 1.24832e-05
6 *1198:B 0.000236192
7 *1199:B 0.000273632
8 *1200:B 0.000333008
9 *1207:B 0
10 *1206:B 4.39509e-06
11 *1197:X 0
12 *249:122 0.000870803
13 *249:111 0.00102577
14 *249:100 0.00058503
15 *249:89 0.000456929
16 *249:59 0.00082263
17 *249:42 0.0007759
18 *249:33 0.0014334
19 *249:14 0.00148561
20 *249:4 0.000568973
21 *1198:B *360:18 2.07184e-05
22 *1199:B *360:18 4.66108e-05
23 *249:33 *1060:A0 0
24 *249:33 *1060:A1 5.83121e-06
25 *249:33 *1300:A 0
26 *249:33 *1342:A 0
27 *249:33 *250:18 0.000709997
28 *249:33 *301:23 0.000173916
29 *249:59 *1103:A 0.000139933
30 *249:59 *265:71 6.28843e-05
31 *249:59 *360:18 0.000116853
32 *249:111 *270:12 0.000141599
33 *249:111 *271:10 0
34 *249:122 *270:12 0.00048653
35 *1062:S *249:33 0
36 *1083:A *249:33 5.71917e-05
37 *1096:A *249:89 4.77719e-05
38 *1198:A *1198:B 0.000197599
39 *1199:A *1199:B 0.000136829
40 *1203:A *1202:B 1.49498e-05
41 *1203:A *249:89 2.59835e-05
42 *1203:A *249:100 3.29384e-05
43 *1204:A *1204:B 4.77757e-05
44 *1205:A *1205:B 0.000683348
45 *1205:A *249:122 3.09233e-05
46 *1206:A *249:33 4.00541e-06
47 *1246:RESET_B *1198:B 3.00381e-05
48 *1249:RESET_B *1201:B 2.11084e-05
49 *1250:RESET_B *249:89 1.08758e-05
50 *1250:RESET_B *249:100 6.52265e-05
51 *1250:RESET_B *249:111 1.47347e-05
52 *1252:RESET_B *1205:B 5.47337e-05
53 *1255:RESET_B *249:33 0
54 *131:14 *1199:B 3.08022e-05
55 *133:14 *249:14 5.34747e-05
56 *133:14 *249:89 0.000147656
57 *133:26 *249:14 0.000596097
58 *133:26 *249:33 0.00023635
59 *133:34 *249:33 0.000153474
60 *165:28 *249:33 0
61 *186:22 *1198:B 0
62 *248:10 *249:59 0.000365334
63 *248:12 *249:33 0
64 *248:12 *249:59 4.5783e-05
65 *248:20 *249:33 7.68414e-06
66 *248:35 *1206:B 4.94457e-05
67 *248:35 *249:14 0.000851244
68 *248:35 *249:33 1.12578e-05
69 *248:35 *249:89 0.00106256
70 *248:41 *249:89 2.75229e-05
71 *248:73 *249:122 0
72 *248:116 *1198:B 4.9968e-05
73 *248:116 *249:59 0.000355816
*RES
1 *1197:X *249:4 1.6 
2 *249:4 *249:14 8.97 
3 *249:14 *1206:B 2.05 
4 *249:14 *249:33 25.9 
5 *249:33 *1207:B 1.6 
6 *249:33 *249:42 1.845 
7 *249:42 *1200:B 10.1 
8 *249:42 *249:59 11.285 
9 *249:59 *1199:B 7.425 
10 *249:59 *1198:B 8.37 
11 *249:4 *249:89 11.16 
12 *249:89 *1202:B 1.96 
13 *249:89 *249:100 1.5 
14 *249:100 *1203:B 1.6 
15 *249:100 *249:111 10.775 
16 *249:111 *1201:B 4.74 
17 *249:111 *249:122 8.52 
18 *249:122 *1204:B 5.1 
19 *249:122 *1205:B 12.06 
*END

*D_NET *250 0.0219817
*CONN
*I *1221:A I *D sky130_fd_sc_hd__nor2_1
*I *1218:A I *D sky130_fd_sc_hd__nor2_1
*I *1213:A I *D sky130_fd_sc_hd__nor2_1
*I *1214:A I *D sky130_fd_sc_hd__nor2_1
*I *1211:A I *D sky130_fd_sc_hd__nor2_1
*I *1212:A I *D sky130_fd_sc_hd__nor2_1
*I *1215:A I *D sky130_fd_sc_hd__nor2_1
*I *1217:A I *D sky130_fd_sc_hd__nor2_1
*I *1210:A I *D sky130_fd_sc_hd__nor2_1
*I *1216:A I *D sky130_fd_sc_hd__nor2_1
*I *1208:X O *D sky130_fd_sc_hd__clkbuf_4
*CAP
1 *1221:A 0
2 *1218:A 0
3 *1213:A 7.28888e-05
4 *1214:A 0.000351458
5 *1211:A 1.84204e-05
6 *1212:A 2.61242e-05
7 *1215:A 0.000343244
8 *1217:A 0
9 *1210:A 0.000230802
10 *1216:A 0
11 *1208:X 4.32471e-05
12 *250:146 0.000783085
13 *250:133 0.000783501
14 *250:103 0.000746356
15 *250:99 0.00187351
16 *250:91 0.00207658
17 *250:75 0.00219561
18 *250:36 0.000807304
19 *250:18 0.0011848
20 *250:8 0.00186075
21 *1210:A *1210:B 0.000619776
22 *1212:A *1212:B 4.66108e-05
23 *1213:A *1213:B 5.4155e-06
24 *1213:A *251:114 1.47347e-05
25 *1214:A *1024:A0 0.000759531
26 *1214:A *1066:A1 4.82863e-05
27 *1214:A *313:41 0
28 *1215:A *1215:B 0.000526859
29 *1215:A *1337:A 0
30 *250:18 *1268:CLK 0
31 *250:36 *1210:B 2.55546e-05
32 *250:36 *1216:B 4.99619e-05
33 *250:36 *1217:B 0.000333427
34 *250:36 *1281:A 0.000353534
35 *250:36 *1335:A 3.76596e-05
36 *250:36 *251:29 0
37 *250:36 *265:22 0
38 *250:36 *300:16 6.47326e-05
39 *250:36 *301:23 4.32695e-05
40 *250:75 *1059:A 5.5201e-05
41 *250:75 *1110:A1 0.000147251
42 *250:75 *1110:B1 0.00020736
43 *250:75 *1268:CLK 0
44 *250:75 *357:19 9.21735e-05
45 *250:75 *359:40 2.63322e-05
46 *250:91 *1218:B 8.41703e-06
47 *250:91 *1221:B 8.53113e-06
48 *250:91 *1344:A 0.00015572
49 *250:91 *271:76 2.75229e-05
50 *250:99 *1072:A1 6.07119e-05
51 *250:99 *1218:B 3.30419e-05
52 *250:99 *1252:CLK 4.85879e-05
53 *250:99 *271:76 0.000150982
54 *250:103 *1072:S 0
55 *250:103 *1215:B 6.61904e-05
56 *250:103 *1257:CLK 0
57 *250:103 *251:80 0.000672622
58 *250:103 *251:82 0.00011852
59 *250:103 *266:120 0
60 *250:133 *1072:A0 5.15941e-05
61 *250:133 *1072:A1 6.36594e-05
62 *250:133 *1072:S 6.42765e-05
63 *250:146 *1024:A0 0.000653578
64 *250:146 *1211:B 4.99619e-05
65 *250:146 *313:41 0
66 *1069:A *1213:A 8.90271e-05
67 *1069:A *1214:A 9.50342e-06
68 *1069:A *250:146 6.28498e-05
69 *1073:A *250:133 0.000124471
70 *1083:B *250:18 0
71 *1091:A1 *250:99 5.17381e-06
72 *1163:C *250:75 4.71439e-05
73 *1163:D *250:75 8.65905e-05
74 *1163:D *250:91 4.01548e-05
75 *1165:B1 *250:91 0.000106344
76 *1165:B2 *250:91 5.31419e-05
77 *1208:A *250:8 2.65814e-06
78 *1208:A *250:75 9.54469e-05
79 *1252:D *250:99 5.47135e-05
80 *1257:D *250:133 2.64607e-05
81 *1257:RESET_B *250:146 0.000235891
82 *1258:RESET_B *250:103 0.000163992
83 *1259:D *1214:A 0.000118527
84 *1260:RESET_B *1214:A 9.30787e-05
85 *1261:RESET_B *1215:A 1.83847e-05
86 *1262:RESET_B *250:36 0.000163012
87 *1263:RESET_B *250:18 4.77757e-05
88 *1263:RESET_B *250:36 3.11409e-05
89 *1264:RESET_B *250:99 8.65961e-05
90 *1266:RESET_B *250:91 3.86529e-05
91 *1268:D *250:75 0.000210911
92 *133:34 *250:18 0
93 *133:34 *250:36 3.57924e-05
94 *133:34 *250:75 0
95 *154:14 *250:99 0.000121437
96 *157:50 *250:91 1.35862e-05
97 *165:28 *250:18 0
98 *187:14 *250:91 0
99 *248:10 *250:18 0
100 *248:12 *250:18 0
101 *249:33 *250:18 0.000709997
*RES
1 *1208:X *250:8 4.05 
2 *250:8 *250:18 14.585 
3 *250:18 *250:36 16.96 
4 *250:36 *1216:A 1.6 
5 *250:36 *1210:A 7.225 
6 *250:18 *1217:A 1.6 
7 *250:8 *250:75 20.6 
8 *250:75 *250:91 21.2 
9 *250:91 *250:99 14.985 
10 *250:99 *250:103 11.795 
11 *250:103 *1215:A 11.025 
12 *250:103 *1212:A 4.05 
13 *250:99 *250:133 6.345 
14 *250:133 *1211:A 1.96 
15 *250:133 *250:146 11.675 
16 *250:146 *1214:A 12.825 
17 *250:146 *1213:A 5.115 
18 *250:91 *1218:A 1.6 
19 *250:75 *1221:A 1.6 
*END

*D_NET *251 0.0215494
*CONN
*I *1221:B I *D sky130_fd_sc_hd__nor2_1
*I *1211:B I *D sky130_fd_sc_hd__nor2_1
*I *1213:B I *D sky130_fd_sc_hd__nor2_1
*I *1214:B I *D sky130_fd_sc_hd__nor2_1
*I *1212:B I *D sky130_fd_sc_hd__nor2_1
*I *1215:B I *D sky130_fd_sc_hd__nor2_1
*I *1218:B I *D sky130_fd_sc_hd__nor2_1
*I *1210:B I *D sky130_fd_sc_hd__nor2_1
*I *1216:B I *D sky130_fd_sc_hd__nor2_1
*I *1217:B I *D sky130_fd_sc_hd__nor2_1
*I *1209:X O *D sky130_fd_sc_hd__clkbuf_4
*CAP
1 *1221:B 9.44254e-05
2 *1211:B 0.000744908
3 *1213:B 5.24337e-05
4 *1214:B 0.000270826
5 *1212:B 0.000102478
6 *1215:B 0.000270423
7 *1218:B 2.78678e-05
8 *1210:B 0.000150771
9 *1216:B 8.33112e-06
10 *1217:B 0.000316902
11 *1209:X 0
12 *251:114 0.000910072
13 *251:82 0.000401011
14 *251:80 0.000955199
15 *251:76 0.00265828
16 *251:61 0.00245101
17 *251:55 0.00221343
18 *251:29 0.000492818
19 *251:21 0.00160268
20 *251:4 0.000316902
21 *1210:B *300:16 0.000733019
22 *1214:B *1024:A0 0.00028406
23 *1214:B *1028:A0 0.000257246
24 *1214:B *1066:A1 8.49205e-05
25 *1214:B *1329:A 0
26 *1216:B *300:16 2.16833e-05
27 *1218:B *271:76 3.05267e-05
28 *1221:B *274:44 0
29 *251:29 *1281:A 0
30 *251:29 *265:22 0.000224473
31 *251:55 *1082:A1 0.000181698
32 *251:55 *1281:A 0
33 *251:55 *265:12 0.000261931
34 *251:55 *265:22 0.000116853
35 *251:55 *293:46 0.000119285
36 *251:55 *357:25 0.000160635
37 *251:55 *357:31 0.000309636
38 *251:61 *274:44 0
39 *251:80 *1072:S 0
40 *251:114 *266:114 8.81869e-05
41 *251:114 *297:8 0.00018525
42 *1057:A2 *251:61 2.80463e-05
43 *1069:A *251:114 4.66742e-05
44 *1071:A *1215:B 7.87426e-05
45 *1071:A *251:80 0.000129728
46 *1071:A *251:82 0.000110683
47 *1076:A *251:55 3.90266e-05
48 *1085:A1 *251:55 1.24035e-05
49 *1086:B2 *251:55 0.000233231
50 *1163:D *1221:B 1.07797e-05
51 *1210:A *1210:B 0.000619776
52 *1212:A *1212:B 4.66108e-05
53 *1213:A *1213:B 5.4155e-06
54 *1213:A *251:114 1.47347e-05
55 *1215:A *1215:B 0.000526859
56 *1252:RESET_B *251:80 0
57 *1254:D *251:55 6.18754e-05
58 *1254:RESET_B *251:55 0
59 *1259:RESET_B *1213:B 3.74161e-05
60 *1259:RESET_B *1214:B 0.000164672
61 *1259:RESET_B *251:114 4.66108e-05
62 *133:34 *1217:B 0.000139238
63 *133:34 *251:55 0
64 *155:6 *251:55 0.000125657
65 *155:51 *251:55 0.000114808
66 *155:55 *1221:B 6.36578e-05
67 *155:55 *251:61 2.09665e-05
68 *161:50 *251:55 7.5431e-05
69 *165:8 *251:55 0
70 *187:14 *1218:B 8.41703e-06
71 *236:14 *251:61 4.85754e-05
72 *248:20 *1217:B 0.000272978
73 *250:36 *1210:B 2.55546e-05
74 *250:36 *1216:B 4.99619e-05
75 *250:36 *1217:B 0.000333427
76 *250:36 *251:29 0
77 *250:91 *1218:B 8.41703e-06
78 *250:91 *1221:B 8.53113e-06
79 *250:99 *1218:B 3.30419e-05
80 *250:103 *1215:B 6.61904e-05
81 *250:103 *251:80 0.000672622
82 *250:103 *251:82 0.00011852
83 *250:146 *1211:B 4.99619e-05
*RES
1 *1209:X *251:4 1.6 
2 *251:4 *1217:B 11.585 
3 *251:4 *251:21 2 
4 *251:21 *251:29 7.505 
5 *251:29 *1216:B 2.05 
6 *251:29 *1210:B 8.98 
7 *251:21 *251:55 27.805 
8 *251:55 *251:61 2.36563 
9 *251:61 *1218:B 4.8275 
10 *251:61 *251:76 2.25213 
11 *251:76 *251:80 9.1475 
12 *251:80 *251:82 1.38 
13 *251:82 *1215:B 10.035 
14 *251:82 *1212:B 5.37 
15 *251:80 *251:114 11.54 
16 *251:114 *1214:B 14.15 
17 *251:114 *1213:B 2.665 
18 *251:76 *1211:B 5.8693 
19 *251:55 *1221:B 5.43 
*END

*D_NET *252 0.00149098
*CONN
*I *1283:A I *D sky130_fd_sc_hd__clkbuf_16
*I *1219:X O *D sky130_fd_sc_hd__buf_1
*CAP
1 *1283:A 0.000455402
2 *1219:X 0.000455402
3 *1283:A *1152:B1 7.23533e-05
4 *1283:A *1279:CLK 0
5 *1174:A *1283:A 4.99619e-05
6 *1176:A *1283:A 0
7 *1279:D *1283:A 0
8 *134:50 *1283:A 0.000113199
9 *134:60 *1283:A 0.00027725
10 *134:119 *1283:A 6.74079e-05
11 *138:47 *1283:A 0
*RES
1 *1219:X *1283:A 16.935 
*END

*D_NET *253 0.00692301
*CONN
*I *1135:A2 I *D sky130_fd_sc_hd__a21oi_1
*I *1130:A3 I *D sky130_fd_sc_hd__a31o_1
*I *1106:D I *D sky130_fd_sc_hd__and4_1
*I *1136:A3 I *D sky130_fd_sc_hd__a31o_1
*I *1168:A0 I *D sky130_fd_sc_hd__mux2_1
*I *1141:A I *D sky130_fd_sc_hd__xnor2_1
*I *1146:A0 I *D sky130_fd_sc_hd__mux2_1
*I *1144:A I *D sky130_fd_sc_hd__inv_2
*I *1241:Q O *D sky130_fd_sc_hd__dfrtp_4
*CAP
1 *1135:A2 0.00011053
2 *1130:A3 0
3 *1106:D 0.000209434
4 *1136:A3 0
5 *1168:A0 0.000295819
6 *1141:A 3.57554e-05
7 *1146:A0 0.000168192
8 *1144:A 0.000238086
9 *1241:Q 0
10 *253:71 0.000235677
11 *253:69 0.000303228
12 *253:58 0.000441943
13 *253:36 0.000448919
14 *253:12 0.000716926
15 *253:10 0.000587134
16 *253:4 0.00043463
17 *1106:D *1135:A1 9.50342e-06
18 *1106:D *1171:A1 9.50342e-06
19 *1106:D *254:28 0.000340573
20 *1106:D *254:30 0.000134509
21 *1106:D *254:71 5.16418e-05
22 *1106:D *255:57 0
23 *1135:A2 *1135:A1 0.000119292
24 *1144:A *1145:A0 0
25 *1144:A *1328:A 6.10941e-05
26 *1144:A *352:20 2.75145e-05
27 *1146:A0 *293:46 0.000161529
28 *253:10 *1241:CLK 0.000232403
29 *253:12 *1168:A1 0
30 *253:12 *293:23 0
31 *253:36 *1168:A1 0
32 *253:58 *254:20 4.82919e-05
33 *253:69 *1130:B1 0.000119756
34 *253:69 *1136:A1 2.50446e-05
35 *253:69 *254:20 2.23589e-05
36 *253:69 *254:26 7.46328e-06
37 *253:71 *1135:A1 4.21314e-05
38 *1131:B *1106:D 0
39 *1132:B2 *1106:D 0.000116568
40 *1132:B2 *253:71 4.18603e-06
41 *1136:B1 *253:69 4.88478e-05
42 *1137:A1_N *1135:A2 1.85674e-05
43 *1137:A2_N *253:58 4.21973e-05
44 *1137:A2_N *253:69 0.000124471
45 *1146:S *1146:A0 0.000138799
46 *1168:S *1141:A 8.52883e-05
47 *1168:S *1168:A0 0.000239807
48 *1241:RESET_B *253:10 1.60203e-05
49 *1241:RESET_B *253:58 0.000253364
50 *197:38 *1106:D 3.09164e-05
51 *203:123 *1135:A2 2.75229e-05
52 *227:12 *1144:A 0.000137571
53 *246:105 *1135:A2 0
54 *246:105 *253:71 0
*RES
1 *1241:Q *253:4 1.6 
2 *253:4 *253:10 4.88 
3 *253:10 *253:12 4.95 
4 *253:12 *1144:A 7.98 
5 *253:12 *1146:A0 7.17 
6 *253:10 *253:36 1.89 
7 *253:36 *1141:A 4.395 
8 *253:36 *1168:A0 7.425 
9 *253:4 *253:58 5.625 
10 *253:58 *1136:A3 1.6 
11 *253:58 *253:69 5.57 
12 *253:69 *253:71 0.615 
13 *253:71 *1106:D 9.57 
14 *253:71 *1130:A3 3.6 
15 *253:69 *1135:A2 6.15 
*END

*D_NET *254 0.00868263
*CONN
*I *1142:A0 I *D sky130_fd_sc_hd__mux2_1
*I *1137:B1 I *D sky130_fd_sc_hd__a2bb2o_1
*I *1136:A2 I *D sky130_fd_sc_hd__a31o_1
*I *1135:A1 I *D sky130_fd_sc_hd__a21oi_1
*I *1130:A2 I *D sky130_fd_sc_hd__a31o_1
*I *1140:A I *D sky130_fd_sc_hd__nand2_1
*I *1106:C I *D sky130_fd_sc_hd__and4_1
*I *1171:A1 I *D sky130_fd_sc_hd__mux2_1
*I *1242:Q O *D sky130_fd_sc_hd__dfrtp_4
*CAP
1 *1142:A0 0.000176432
2 *1137:B1 0
3 *1136:A2 0
4 *1135:A1 9.55146e-05
5 *1130:A2 0
6 *1140:A 0.000455776
7 *1106:C 0
8 *1171:A1 0.000356185
9 *1242:Q 0.000436692
10 *254:71 0.000118322
11 *254:30 0.00043332
12 *254:28 0.000642148
13 *254:26 0.000352328
14 *254:20 0.000426951
15 *254:14 0.000352668
16 *254:12 0.000759124
17 *1135:A1 *255:28 9.50342e-06
18 *1135:A1 *255:32 0.000193571
19 *1140:A *293:46 0.000688432
20 *1171:A1 *1127:A1 9.7872e-05
21 *1171:A1 *1288:A 0.000159333
22 *1171:A1 *352:20 0.000319228
23 *254:12 *255:28 8.06335e-05
24 *254:14 *255:28 0
25 *254:20 *255:32 0
26 *254:26 *1136:A1 0.000229135
27 *254:26 *255:51 3.66286e-05
28 *254:71 *255:32 9.50342e-06
29 *1106:D *1135:A1 9.50342e-06
30 *1106:D *1171:A1 9.50342e-06
31 *1106:D *254:28 0.000340573
32 *1106:D *254:30 0.000134509
33 *1106:D *254:71 5.16418e-05
34 *1126:A2 *1140:A 5.84828e-05
35 *1126:B1 *1140:A 0
36 *1131:A *1140:A 7.66083e-05
37 *1135:A2 *1135:A1 0.000119292
38 *1136:B1 *254:28 2.46089e-05
39 *1136:B1 *254:71 1.14559e-05
40 *1137:A2_N *254:14 0
41 *1137:A2_N *254:20 0
42 *1138:A1 *254:12 0
43 *1139:A *254:12 0.000120186
44 *1146:S *1140:A 5.05521e-05
45 *1171:S *1171:A1 8.49205e-05
46 *1191:A *254:12 5.61935e-05
47 *1191:A *254:14 4.43871e-06
48 *1191:A *254:20 0
49 *1192:A *254:12 3.85884e-05
50 *1242:RESET_B *254:12 4.70343e-05
51 *186:76 *1140:A 0.000274952
52 *186:76 *1171:A1 0
53 *186:76 *254:30 0
54 *186:80 *254:28 0.000105955
55 *192:56 *1140:A 0
56 *192:60 *1140:A 1.75875e-05
57 *197:18 *1140:A 0
58 *197:38 *1171:A1 0.000103135
59 *201:66 *1140:A 0.000112622
60 *201:81 *1142:A0 4.66108e-05
61 *201:88 *1142:A0 0.000222134
62 *203:123 *1135:A1 1.19928e-05
63 *246:105 *1135:A1 0
64 *253:58 *254:20 4.82919e-05
65 *253:69 *254:20 2.23589e-05
66 *253:69 *254:26 7.46328e-06
67 *253:71 *1135:A1 4.21314e-05
*RES
1 *1242:Q *254:12 12.0975 
2 *254:12 *254:14 2.1525 
3 *254:14 *254:20 4.94 
4 *254:20 *254:26 5.135 
5 *254:26 *254:28 3.93 
6 *254:28 *254:30 1.635 
7 *254:30 *1171:A1 11.97 
8 *254:30 *1106:C 3.6 
9 *254:28 *1140:A 18.445 
10 *254:26 *254:71 0.615 
11 *254:71 *1130:A2 3.6 
12 *254:71 *1135:A1 6.45 
13 *254:20 *1136:A2 1.6 
14 *254:14 *1137:B1 3.6 
15 *254:12 *1142:A0 6.81 
*END

*D_NET *255 0.00739622
*CONN
*I *1138:A0 I *D sky130_fd_sc_hd__mux2_1
*I *1135:B1 I *D sky130_fd_sc_hd__a21oi_1
*I *1130:A1 I *D sky130_fd_sc_hd__a31o_1
*I *1132:A1 I *D sky130_fd_sc_hd__a22o_1
*I *1173:A1 I *D sky130_fd_sc_hd__mux2_1
*I *1171:A0 I *D sky130_fd_sc_hd__mux2_1
*I *1106:B I *D sky130_fd_sc_hd__and4_1
*I *1136:A1 I *D sky130_fd_sc_hd__a31o_1
*I *1243:Q O *D sky130_fd_sc_hd__dfrtp_4
*CAP
1 *1138:A0 0
2 *1135:B1 0
3 *1130:A1 0
4 *1132:A1 0
5 *1173:A1 5.66511e-05
6 *1171:A0 0.000267149
7 *1106:B 0.000220533
8 *1136:A1 4.60675e-05
9 *1243:Q 0.000507924
10 *255:66 0.000546694
11 *255:57 0.000603376
12 *255:51 0.000284013
13 *255:34 0.000185782
14 *255:32 0.000133888
15 *255:28 0.000417105
16 *255:16 0.000806791
17 *1136:A1 *1130:B1 3.00381e-05
18 *1171:A0 *1288:A 0.000122801
19 *1173:A1 *256:24 7.44125e-05
20 *255:51 *1130:B1 0.00021485
21 *255:66 *256:24 0.000187812
22 *1106:D *255:57 0
23 *1107:A *1106:B 2.30292e-05
24 *1107:A *255:66 2.05056e-05
25 *1131:B *255:57 0.000116853
26 *1132:B1 *255:51 0.0001278
27 *1132:B2 *255:57 0.0001043
28 *1135:A1 *255:28 9.50342e-06
29 *1135:A1 *255:32 0.000193571
30 *1136:B1 *1136:A1 8.52845e-05
31 *1136:B1 *255:32 4.43871e-06
32 *1138:A1 *255:16 8.6076e-05
33 *1138:A1 *255:28 0.000137154
34 *1138:S *255:16 4.82919e-05
35 *1138:S *255:28 0.000133875
36 *1243:RESET_B *255:16 8.8266e-05
37 *197:6 *1106:B 0.00015896
38 *197:18 *1106:B 0.000119756
39 *203:12 *1171:A0 3.9442e-05
40 *203:14 *1171:A0 8.52172e-05
41 *203:18 *1171:A0 3.86529e-05
42 *246:75 *255:57 0.000429843
43 *246:85 *255:51 0
44 *246:105 *255:28 0
45 *246:105 *255:57 2.30797e-05
46 *246:109 *255:16 0.000200091
47 *247:107 *255:16 3.54025e-05
48 *253:69 *1136:A1 2.50446e-05
49 *254:12 *255:28 8.06335e-05
50 *254:14 *255:28 0
51 *254:20 *255:32 0
52 *254:26 *1136:A1 0.000229135
53 *254:26 *255:51 3.66286e-05
54 *254:71 *255:32 9.50342e-06
*RES
1 *1243:Q *255:16 14.795 
2 *255:16 *255:28 7.985 
3 *255:28 *255:32 4.4 
4 *255:32 *255:34 0.36 
5 *255:34 *1136:A1 3.79 
6 *255:34 *255:51 3.69 
7 *255:51 *255:57 9.205 
8 *255:57 *1106:B 4.465 
9 *255:57 *255:66 2.865 
10 *255:66 *1171:A0 10.16 
11 *255:66 *1173:A1 2.395 
12 *255:51 *1132:A1 1.6 
13 *255:32 *1130:A1 1.6 
14 *255:28 *1135:B1 3.6 
15 *255:16 *1138:A0 1.6 
*END

*D_NET *256 0.00719609
*CONN
*I *1133:A0 I *D sky130_fd_sc_hd__mux2_1
*I *1130:B1 I *D sky130_fd_sc_hd__a31o_1
*I *1175:A1 I *D sky130_fd_sc_hd__mux2_1
*I *1173:A0 I *D sky130_fd_sc_hd__mux2_1
*I *1127:A1 I *D sky130_fd_sc_hd__a22o_1
*I *1106:A I *D sky130_fd_sc_hd__and4_1
*I *1244:Q O *D sky130_fd_sc_hd__dfrtp_2
*CAP
1 *1133:A0 0.000197058
2 *1130:B1 0.000409072
3 *1175:A1 0
4 *1173:A0 0
5 *1127:A1 0.000294815
6 *1106:A 1.17533e-05
7 *1244:Q 0.000581976
8 *256:53 0.000409072
9 *256:24 0.000640811
10 *256:16 0.00063104
11 *256:10 0.000379259
12 *256:6 0.000861496
13 *1106:A *257:88 4.82863e-05
14 *1127:A1 *1245:CLK 7.47145e-05
15 *1127:A1 *352:20 0.00010113
16 *1133:A0 *1244:CLK 2.86975e-05
17 *256:6 *1244:CLK 8.73389e-06
18 *256:6 *1350:A 4.01424e-05
19 *256:10 *267:56 0.000109157
20 *256:16 *267:56 0.000472504
21 *256:24 *257:88 0.00022381
22 *1107:A *256:24 0.000198939
23 *1127:A2 *1127:A1 4.82919e-05
24 *1128:A1 *1127:A1 0
25 *1132:A2 *1130:B1 4.66108e-05
26 *1133:A1 *1130:B1 6.16876e-05
27 *1133:S *1133:A0 2.26862e-05
28 *1134:A *1133:A0 1.9872e-05
29 *1136:A1 *1130:B1 3.00381e-05
30 *1171:A1 *1127:A1 9.7872e-05
31 *1173:A1 *256:24 7.44125e-05
32 *1173:S *256:24 4.80285e-05
33 *1175:S *256:16 0.000128378
34 *197:6 *256:24 1.46828e-05
35 *197:18 *1106:A 2.75145e-05
36 *197:18 *256:24 9.02259e-05
37 *203:12 *256:16 0
38 *203:123 *1133:A0 5.83121e-06
39 *203:123 *256:10 0
40 *246:85 *1130:B1 2.45351e-05
41 *247:79 *1130:B1 0.000210536
42 *253:69 *1130:B1 0.000119756
43 *255:51 *1130:B1 0.00021485
44 *255:66 *256:24 0.000187812
*RES
1 *1244:Q *256:6 7.915 
2 *256:6 *256:10 3.38 
3 *256:10 *256:16 8.51 
4 *256:16 *256:24 8.085 
5 *256:24 *1106:A 2.05 
6 *256:24 *1127:A1 10.97 
7 *256:16 *1173:A0 1.6 
8 *256:10 *256:53 2 
9 *256:53 *1175:A1 1.6 
10 *256:53 *1130:B1 10.12 
11 *256:6 *1133:A0 5.095 
*END

*D_NET *257 0.0110948
*CONN
*I *1175:A0 I *D sky130_fd_sc_hd__mux2_1
*I *1128:A0 I *D sky130_fd_sc_hd__mux2_1
*I *1126:A1 I *D sky130_fd_sc_hd__a21oi_1
*I *1125:A I *D sky130_fd_sc_hd__or2_1
*I *1121:A2 I *D sky130_fd_sc_hd__a31o_1
*I *1122:B1 I *D sky130_fd_sc_hd__a2bb2o_1
*I *1120:A1 I *D sky130_fd_sc_hd__a21oi_1
*I *1108:C I *D sky130_fd_sc_hd__and4_1
*I *1115:A2 I *D sky130_fd_sc_hd__a31oi_1
*I *1177:A1 I *D sky130_fd_sc_hd__mux2_1
*I *1245:Q O *D sky130_fd_sc_hd__dfrtp_4
*CAP
1 *1175:A0 0.000382192
2 *1128:A0 0
3 *1126:A1 0.000162673
4 *1125:A 0
5 *1121:A2 0
6 *1122:B1 0
7 *1120:A1 0
8 *1108:C 0
9 *1115:A2 7.33577e-05
10 *1177:A1 4.12573e-05
11 *1245:Q 0
12 *257:90 0.000260105
13 *257:88 0.000477814
14 *257:36 0.000149304
15 *257:34 0.000676888
16 *257:26 0.00106216
17 *257:18 0.000467938
18 *257:14 0.00014834
19 *257:8 0.000851358
20 *257:4 0.0007528
21 *1115:A2 *1328:A 0.000114492
22 *1175:A0 *267:23 0.000407465
23 *1175:A0 *267:45 0.000116853
24 *1175:A0 *267:56 0.000497423
25 *1175:A0 *359:16 4.30926e-05
26 *1177:A1 *1108:A 6.52265e-05
27 *257:8 *359:16 4.82369e-05
28 *257:14 *1121:A1 2.30292e-05
29 *257:14 *293:46 0.000101317
30 *257:18 *1121:A1 9.61303e-05
31 *257:26 *1121:A1 8.57348e-05
32 *257:26 *258:8 2.79071e-05
33 *257:26 *258:12 0.000334775
34 *257:26 *258:26 4.99619e-05
35 *257:34 *1328:A 0.000128197
36 *257:34 *258:38 8.30853e-06
37 *257:36 *1108:A 6.27029e-05
38 *257:88 *293:46 0.000448027
39 *1099:A *257:14 8.65961e-05
40 *1106:A *257:88 4.82863e-05
41 *1109:S *257:34 9.29751e-06
42 *1117:A3 *1115:A2 0.000116165
43 *1120:A2 *257:14 1.52184e-05
44 *1120:A2 *257:26 2.30292e-05
45 *1120:A2 *257:34 3.00381e-05
46 *1121:A3 *257:18 9.53428e-06
47 *1122:A2_N *257:18 4.82919e-05
48 *1122:B2 *257:26 9.09788e-06
49 *1126:A2 *1126:A1 0.000143462
50 *1126:B1 *257:88 1.37328e-05
51 *1126:B1 *257:90 8.57237e-05
52 *1129:A *257:88 0.000133434
53 *1129:A *257:90 3.64998e-06
54 *1149:S *1175:A0 0.000558669
55 *1177:S *1177:A1 4.82919e-05
56 *186:40 *257:26 0
57 *186:44 *257:26 0
58 *186:130 *257:14 9.80032e-06
59 *186:130 *257:18 1.46744e-05
60 *197:18 *1126:A1 3.14081e-05
61 *197:18 *257:88 0.000106082
62 *197:18 *257:90 0.00032127
63 *197:38 *257:14 8.97486e-05
64 *197:38 *257:88 0.000255633
65 *197:53 *257:14 8.65905e-05
66 *197:53 *257:18 1.60203e-05
67 *197:55 *257:18 7.35813e-05
68 *197:55 *257:36 4.82863e-05
69 *203:20 *257:14 4.21973e-05
70 *203:46 *1177:A1 9.52621e-05
71 *203:46 *257:36 3.96737e-05
72 *205:12 *1115:A2 4.66108e-05
73 *246:85 *1175:A0 4.66108e-05
74 *256:24 *257:88 0.00022381
*RES
1 *1245:Q *257:4 1.6 
2 *257:4 *257:8 7.28 
3 *257:8 *257:14 5.63 
4 *257:14 *257:18 1.845 
5 *257:18 *257:26 10.555 
6 *257:26 *257:34 12.535 
7 *257:34 *257:36 1.14 
8 *257:36 *1177:A1 3.085 
9 *257:36 *1115:A2 7.43 
10 *257:34 *1108:C 1.6 
11 *257:26 *1120:A1 1.6 
12 *257:18 *1122:B1 1.6 
13 *257:14 *1121:A2 1.6 
14 *257:8 *257:88 12.785 
15 *257:88 *257:90 2.865 
16 *257:90 *1125:A 1.6 
17 *257:90 *1126:A1 4.045 
18 *257:88 *1128:A0 1.6 
19 *257:4 *1175:A0 18.77 
*END

*D_NET *258 0.00512516
*CONN
*I *1121:A1 I *D sky130_fd_sc_hd__a31o_1
*I *1120:B1 I *D sky130_fd_sc_hd__a21oi_1
*I *1123:A0 I *D sky130_fd_sc_hd__mux2_1
*I *1108:B I *D sky130_fd_sc_hd__and4_1
*I *1115:A1 I *D sky130_fd_sc_hd__a31oi_1
*I *1177:A0 I *D sky130_fd_sc_hd__mux2_1
*I *1116:A I *D sky130_fd_sc_hd__nand2_1
*I *1246:Q O *D sky130_fd_sc_hd__dfrtp_2
*CAP
1 *1121:A1 0.000164381
2 *1120:B1 0
3 *1123:A0 0
4 *1108:B 0
5 *1115:A1 0
6 *1177:A0 0.000305936
7 *1116:A 0
8 *1246:Q 0.000188805
9 *258:49 0.000416075
10 *258:38 0.000224393
11 *258:28 0.000294151
12 *258:26 0.00035572
13 *258:12 0.000257582
14 *258:8 0.000434945
15 *1177:A0 *259:46 8.40213e-05
16 *258:28 *1108:A 5.06989e-05
17 *258:38 *1328:A 5.12017e-06
18 *258:49 *259:46 0
19 *1115:A3 *258:38 4.94404e-05
20 *1117:B1 *1177:A0 0.00010698
21 *1120:A2 *1121:A1 0
22 *1120:A2 *258:12 0.000382954
23 *1120:A2 *258:26 4.82919e-05
24 *1122:A1_N *258:26 0.000112438
25 *1123:S *258:26 2.55763e-05
26 *1124:A *258:26 0
27 *1178:A *1177:A0 9.60582e-07
28 *1179:B1_N *1177:A0 0
29 *131:76 *1121:A1 2.15738e-05
30 *131:76 *258:8 0
31 *186:40 *258:8 0
32 *186:130 *1121:A1 0.000157589
33 *197:55 *258:26 2.7441e-05
34 *197:55 *258:28 0.000543081
35 *201:20 *258:26 2.96553e-05
36 *201:40 *258:26 5.98004e-06
37 *203:46 *1177:A0 1.16578e-05
38 *203:46 *258:38 7.01359e-05
39 *205:12 *1177:A0 4.60584e-05
40 *205:12 *258:38 4.27523e-05
41 *205:12 *258:49 3.49228e-05
42 *257:14 *1121:A1 2.30292e-05
43 *257:18 *1121:A1 9.61303e-05
44 *257:26 *1121:A1 8.57348e-05
45 *257:26 *258:8 2.79071e-05
46 *257:26 *258:12 0.000334775
47 *257:26 *258:26 4.99619e-05
48 *257:34 *258:38 8.30853e-06
*RES
1 *1246:Q *258:8 6.765 
2 *258:8 *258:12 5.555 
3 *258:12 *258:26 8.11 
4 *258:26 *258:28 4.935 
5 *258:28 *258:38 6.445 
6 *258:38 *1116:A 1.6 
7 *258:38 *258:49 2.115 
8 *258:49 *1177:A0 10.55 
9 *258:49 *1115:A1 1.6 
10 *258:28 *1108:B 1.6 
11 *258:26 *1123:A0 1.6 
12 *258:12 *1120:B1 1.6 
13 *258:8 *1121:A1 7.695 
*END

*D_NET *259 0.00479383
*CONN
*I *1118:A0 I *D sky130_fd_sc_hd__mux2_1
*I *1115:B1 I *D sky130_fd_sc_hd__a31oi_1
*I *1179:A1 I *D sky130_fd_sc_hd__a21bo_1
*I *1108:A I *D sky130_fd_sc_hd__and4_1
*I *1104:A1 I *D sky130_fd_sc_hd__a21bo_1
*I *1247:Q O *D sky130_fd_sc_hd__dfrtp_1
*CAP
1 *1118:A0 0
2 *1115:B1 0
3 *1179:A1 0.000160842
4 *1108:A 0.00021632
5 *1104:A1 0.000334995
6 *1247:Q 0.000280556
7 *259:46 0.000335596
8 *259:29 0.000556758
9 *259:25 0.000420315
10 *259:8 0.000870182
11 *1179:A1 *1328:A 5.4256e-05
12 *1109:S *1104:A1 0.000163193
13 *1109:S *259:25 0.000254604
14 *1109:S *259:29 0
15 *1112:S *259:25 5.05437e-05
16 *1117:A1 *259:29 9.71067e-05
17 *1117:A1 *259:46 2.14129e-05
18 *1117:A3 *259:29 3.47837e-05
19 *1117:A3 *259:46 5.5554e-05
20 *1117:B1 *259:29 4.03082e-05
21 *1117:B1 *259:46 7.26551e-05
22 *1118:A1 *259:25 4.82919e-05
23 *1118:A1 *259:29 7.23602e-05
24 *1177:A0 *259:46 8.40213e-05
25 *1177:A1 *1108:A 6.52265e-05
26 *1177:S *1108:A 4.82919e-05
27 *1178:A *1104:A1 0
28 *1178:A *259:25 0
29 *1178:A *259:29 2.33678e-05
30 *1179:A2 *1179:A1 6.77417e-05
31 *1179:B1_N *1179:A1 0.000187537
32 *197:55 *1108:A 9.47972e-06
33 *198:8 *259:29 0
34 *201:20 *259:25 5.83121e-06
35 *205:12 *259:46 4.82919e-05
36 *257:36 *1108:A 6.27029e-05
37 *258:28 *1108:A 5.06989e-05
38 *258:49 *259:46 0
*RES
1 *1247:Q *259:8 6.465 
2 *259:8 *1104:A1 9.54 
3 *259:8 *259:25 8 
4 *259:25 *259:29 5.42 
5 *259:29 *1108:A 7.155 
6 *259:29 *259:46 5.3 
7 *259:46 *1179:A1 9.335 
8 *259:46 *1115:B1 1.6 
9 *259:25 *1118:A0 1.6 
*END

*D_NET *260 0.000915777
*CONN
*I *1103:B_N I *D sky130_fd_sc_hd__or2b_1
*I *1295:A I *D sky130_fd_sc_hd__dlygate4sd3_1
*I *1248:Q O *D sky130_fd_sc_hd__dfrtp_1
*CAP
1 *1103:B_N 0.000199841
2 *1295:A 0
3 *1248:Q 0.000202481
4 *260:12 0.000402321
5 *1103:B_N *1103:A 2.11084e-05
6 *1103:B_N *1109:A0 0
7 *1103:B_N *1112:A0 0
8 *260:12 *265:73 2.86975e-05
9 *1104:B1_N *1103:B_N 0
10 *1105:A *1103:B_N 6.13283e-05
*RES
1 *1248:Q *260:12 6.48 
2 *260:12 *1295:A 3.6 
3 *260:12 *1103:B_N 6.975 
*END

*D_NET *261 0.0115698
*CONN
*I *1288:A I *D sky130_fd_sc_hd__clkbuf_16
*I *1289:A I *D sky130_fd_sc_hd__clkbuf_16
*I *1286:A I *D sky130_fd_sc_hd__clkbuf_16
*I *1287:A I *D sky130_fd_sc_hd__clkbuf_16
*I *1282:X O *D sky130_fd_sc_hd__clkbuf_16
*CAP
1 *1288:A 0.00110824
2 *1289:A 2.88696e-05
3 *1286:A 0.000514554
4 *1287:A 0.00012792
5 *1282:X 0
6 *261:42 0.00173124
7 *261:8 0.00112795
8 *261:4 0.0010796
9 *1286:A *1074:C1 3.40685e-05
10 *1286:A *270:52 6.3124e-06
11 *1286:A *274:44 0.000199833
12 *1287:A *270:52 1.34503e-05
13 *1288:A *267:21 8.73389e-06
14 *1288:A *352:20 4.35931e-05
15 *261:8 *1051:A1 2.25119e-05
16 *261:8 *1266:CLK 0
17 *261:42 *1272:CLK 0
18 *261:42 *305:16 0
19 *261:42 *359:91 0
20 *1052:B1 *261:8 0.000139238
21 *1055:A *1287:A 7.66908e-05
22 *1055:A *261:8 5.38986e-05
23 *1074:D1 *1286:A 0.000122797
24 *1075:B2 *1286:A 4.21518e-05
25 *1081:B *1286:A 0.000692128
26 *1081:C_N *1286:A 0.00016063
27 *1101:A2 *1287:A 5.39961e-05
28 *1101:A2 *261:8 0.00138087
29 *1149:S *1288:A 1.03833e-05
30 *1171:A0 *1288:A 0.000122801
31 *1171:A1 *1288:A 0.000159333
32 *1172:A *1288:A 6.00201e-05
33 *1172:A *1289:A 1.83756e-05
34 *1238:D *261:42 0.000206817
35 *131:110 *261:42 0
36 *133:101 *1288:A 1.79536e-05
37 *133:101 *261:42 0.000477568
38 *134:14 *1288:A 3.63701e-06
39 *134:14 *261:42 0.000170932
40 *155:96 *261:8 5.07083e-05
41 *155:104 *261:8 9.47454e-05
42 *155:125 *261:8 0.000155169
43 *155:125 *261:42 0
44 *157:50 *261:8 0.000700104
45 *161:39 *1286:A 0.000231247
46 *162:18 *261:8 5.37079e-05
47 *193:33 *261:8 7.23602e-05
48 *193:33 *261:42 0.000194694
*RES
1 *1282:X *261:4 1.6 
2 *261:4 *261:8 19.19 
3 *261:8 *1287:A 6.06 
4 *261:8 *1286:A 16.17 
5 *261:4 *261:42 14.39 
6 *261:42 *1289:A 4.05 
7 *261:42 *1288:A 11.1497 
*END

*D_NET *262 0.00338884
*CONN
*I *1285:A I *D sky130_fd_sc_hd__clkbuf_16
*I *1284:A I *D sky130_fd_sc_hd__clkbuf_16
*I *1283:X O *D sky130_fd_sc_hd__clkbuf_16
*CAP
1 *1285:A 0.000546796
2 *1284:A 0.000567215
3 *1283:X 0
4 *262:4 0.00111401
5 *1284:A *1237:D 7.4027e-05
6 *1284:A *268:10 0
7 *1284:A *268:14 0
8 *1284:A *268:56 0.00020613
9 *1284:A *361:25 2.16389e-05
10 *1285:A *1166:A 4.9968e-05
11 *1285:A *1219:A 0
12 *1285:A *268:56 0
13 *1285:A *361:40 3.67779e-05
14 *1152:A3 *1284:A 0.000270653
15 *1167:B1 *1285:A 3.38698e-05
16 *1174:A *1285:A 5.85254e-05
17 *1176:A *1285:A 3.45588e-05
18 *1189:B *1284:A 0.000157695
19 *1236:D *1284:A 6.14816e-05
20 *1236:RESET_B *1284:A 6.65066e-05
21 *193:50 *1284:A 0
22 *247:41 *1284:A 8.89829e-05
*RES
1 *1283:X *262:4 1.6 
2 *262:4 *1284:A 18.5 
3 *262:4 *1285:A 14.345 
*END

*D_NET *263 0.00390797
*CONN
*I *1233:A I *D sky130_fd_sc_hd__inv_2
*I *1222:A I *D sky130_fd_sc_hd__inv_2
*I *1231:A I *D sky130_fd_sc_hd__inv_2
*I *1232:A I *D sky130_fd_sc_hd__inv_2
*I *1284:X O *D sky130_fd_sc_hd__clkbuf_16
*CAP
1 *1233:A 0.000332328
2 *1222:A 0.00045103
3 *1231:A 0.000198092
4 *1232:A 0.00022014
5 *1284:X 0.000156217
6 *263:32 0.000828706
7 *263:19 0.000243439
8 *263:8 0.000376357
9 *1222:A *1267:CLK 3.3982e-05
10 *1231:A *1045:A1 0.000122313
11 *1231:A *1045:A2 0
12 *1231:A *359:91 0
13 *1232:A *1277:CLK 2.86975e-05
14 *1232:A *1351:A 0.000122801
15 *1233:A *1307:A 0
16 *1267:D *1231:A 0
17 *1267:D *1233:A 0
18 *1267:D *263:32 0
19 *1267:RESET_B *1233:A 0.000144882
20 *1276:RESET_B *1231:A 0
21 *134:60 *1233:A 0
22 *138:32 *1231:A 5.47531e-05
23 *138:32 *1232:A 0.000131441
24 *138:32 *1233:A 0.000426013
25 *138:32 *263:32 3.67779e-05
*RES
1 *1284:X *263:8 3.445 
2 *263:8 *1232:A 6.115 
3 *263:8 *263:19 2 
4 *263:19 *1231:A 6.96 
5 *263:19 *263:32 0.87 
6 *263:32 *1222:A 8.805 
7 *263:32 *1233:A 12.375 
*END

*D_NET *264 0.00785875
*CONN
*I *1229:A I *D sky130_fd_sc_hd__inv_2
*I *1235:A I *D sky130_fd_sc_hd__inv_2
*I *1234:A I *D sky130_fd_sc_hd__inv_2
*I *1228:A I *D sky130_fd_sc_hd__inv_2
*I *1230:A I *D sky130_fd_sc_hd__inv_2
*I *1220:A I *D sky130_fd_sc_hd__inv_2
*I *1285:X O *D sky130_fd_sc_hd__clkbuf_16
*CAP
1 *1229:A 0.000800395
2 *1235:A 0.000233139
3 *1234:A 2.08101e-05
4 *1228:A 0.000419588
5 *1230:A 8.69337e-06
6 *1220:A 0
7 *1285:X 0.000298967
8 *264:53 0.000474601
9 *264:38 0.000708046
10 *264:29 0.000249045
11 *264:18 0.000210579
12 *264:12 0.0011374
13 *1228:A *1273:CLK 7.4027e-05
14 *264:12 *1265:CLK 7.4027e-05
15 *264:29 *1033:A1 0.000209377
16 *264:38 *1033:A1 0.000393024
17 *264:38 *1219:A 0.000201508
18 *264:53 *1033:A1 0.000272485
19 *264:53 *1219:A 0.000527175
20 *1032:S *1228:A 2.15594e-05
21 *1033:A0 *264:29 0.000121811
22 *1033:S *264:29 1.52352e-05
23 *1034:A *1230:A 4.00541e-06
24 *1034:A *264:29 0.000103658
25 *1034:A *264:38 6.90876e-05
26 *1035:B *1229:A 0
27 *1035:B *264:12 0
28 *1039:B *1228:A 0
29 *1041:B1 *1228:A 7.06865e-05
30 *1167:B1 *1229:A 0
31 *1167:B1 *264:12 0
32 *1176:A *1235:A 0.000198945
33 *1176:A *264:12 0.000162311
34 *1190:A *1229:A 0
35 *1265:D *264:12 0.000114492
36 *1273:D *1228:A 0.000114492
37 *1274:RESET_B *1229:A 0
38 *134:119 *1228:A 0
39 *136:97 *1235:A 0.000295393
40 *136:103 *1228:A 4.43777e-05
41 *136:120 *1228:A 9.11618e-05
42 *138:49 *1235:A 0.000118652
43 *138:63 *1229:A 0
*RES
1 *1285:X *264:12 8.9625 
2 *264:12 *264:18 2.5625 
3 *264:18 *1220:A 1.6 
4 *264:18 *264:29 4.71 
5 *264:29 *1230:A 1.96 
6 *264:29 *264:38 3.555 
7 *264:38 *1228:A 13.715 
8 *264:38 *264:53 5.97 
9 *264:53 *1234:A 1.96 
10 *264:53 *1235:A 11.81 
11 *264:12 *1229:A 10.0858 
*END

*D_NET *265 0.0130905
*CONN
*I *1254:CLK I *D sky130_fd_sc_hd__dfrtp_1
*I *1256:CLK I *D sky130_fd_sc_hd__dfrtp_1
*I *1268:CLK I *D sky130_fd_sc_hd__dfstp_2
*I *1248:CLK I *D sky130_fd_sc_hd__dfrtp_1
*I *1246:CLK I *D sky130_fd_sc_hd__dfrtp_2
*I *1247:CLK I *D sky130_fd_sc_hd__dfrtp_1
*I *1255:CLK I *D sky130_fd_sc_hd__dfrtp_2
*I *1263:CLK I *D sky130_fd_sc_hd__dfrtp_1
*I *1262:CLK I *D sky130_fd_sc_hd__dfrtp_1
*I *1286:X O *D sky130_fd_sc_hd__clkbuf_16
*CAP
1 *1254:CLK 0
2 *1256:CLK 0.000142975
3 *1268:CLK 0.000282169
4 *1248:CLK 0
5 *1246:CLK 0.000716528
6 *1247:CLK 0
7 *1255:CLK 8.18584e-05
8 *1263:CLK 0.000503848
9 *1262:CLK 3.55506e-05
10 *1286:X 0.000426076
11 *265:79 0.00121815
12 *265:73 0.00103707
13 *265:71 0.00118012
14 *265:54 0.000661151
15 *265:37 0.000969644
16 *265:26 0.00120015
17 *265:22 0.00138116
18 *265:12 0.000748666
19 *265:12 *1281:A 0.00019199
20 *265:26 *1281:A 2.49909e-05
21 *265:79 *1334:A 6.73751e-05
22 odata[6] *265:37 9.54399e-05
23 *1062:S *265:37 0
24 *1112:S *1246:CLK 0.000119277
25 *1112:S *265:79 0.000298647
26 *1178:A *265:79 0
27 *1196:A *1268:CLK 4.82919e-05
28 *1200:A *1268:CLK 5.21706e-05
29 *1200:A *265:71 0
30 *1200:A *265:73 6.6925e-05
31 *1208:A *1268:CLK 0
32 *1248:D *265:73 1.0263e-05
33 *1248:RESET_B *265:73 0.000111194
34 *1254:D *265:22 5.83121e-06
35 *1254:RESET_B *265:22 0
36 *1255:D *265:54 0.000120186
37 *1262:D *265:26 5.34747e-05
38 *1262:RESET_B *265:26 0.000192716
39 *248:10 *1268:CLK 0.000298449
40 *248:12 *265:71 0
41 *248:20 *265:37 0
42 *248:20 *265:54 0
43 *248:20 *265:71 0
44 *248:116 *1268:CLK 5.33085e-05
45 *249:59 *265:71 6.28843e-05
46 *250:18 *1268:CLK 0
47 *250:36 *265:22 0
48 *250:75 *1268:CLK 0
49 *251:29 *265:22 0.000224473
50 *251:55 *265:12 0.000261931
51 *251:55 *265:22 0.000116853
52 *260:12 *265:73 2.86975e-05
*RES
1 *1286:X *265:12 13.58 
2 *265:12 *265:22 9.43 
3 *265:22 *265:26 10.725 
4 *265:26 *1262:CLK 2.215 
5 *265:26 *265:37 6.185 
6 *265:37 *1263:CLK 9.36 
7 *265:37 *265:54 3.93 
8 *265:54 *1255:CLK 4.755 
9 *265:54 *265:71 8.075 
10 *265:71 *265:73 9.075 
11 *265:73 *265:79 12.5 
12 *265:79 *1247:CLK 3.6 
13 *265:79 *1246:CLK 14.73 
14 *265:73 *1248:CLK 1.6 
15 *265:71 *1268:CLK 11.465 
16 *265:22 *1256:CLK 3.775 
17 *265:12 *1254:CLK 1.6 
*END

*D_NET *266 0.0149842
*CONN
*I *1257:CLK I *D sky130_fd_sc_hd__dfrtp_1
*I *1259:CLK I *D sky130_fd_sc_hd__dfrtp_1
*I *1260:CLK I *D sky130_fd_sc_hd__dfrtp_1
*I *1261:CLK I *D sky130_fd_sc_hd__dfrtp_1
*I *1258:CLK I *D sky130_fd_sc_hd__dfrtp_1
*I *1253:CLK I *D sky130_fd_sc_hd__dfrtp_1
*I *1252:CLK I *D sky130_fd_sc_hd__dfrtp_1
*I *1266:CLK I *D sky130_fd_sc_hd__dfrtp_1
*I *1264:CLK I *D sky130_fd_sc_hd__dfrtp_4
*I *1249:CLK I *D sky130_fd_sc_hd__dfrtp_1
*I *1250:CLK I *D sky130_fd_sc_hd__dfrtp_4
*I *1251:CLK I *D sky130_fd_sc_hd__dfrtp_4
*I *1287:X O *D sky130_fd_sc_hd__clkbuf_16
*CAP
1 *1257:CLK 0.000300914
2 *1259:CLK 7.56928e-05
3 *1260:CLK 0
4 *1261:CLK 0.000171605
5 *1258:CLK 3.64016e-05
6 *1253:CLK 0.00023257
7 *1252:CLK 7.74543e-05
8 *1266:CLK 0.000374036
9 *1264:CLK 0.000125977
10 *1249:CLK 1.89937e-05
11 *1250:CLK 2.65433e-05
12 *1251:CLK 0.000272161
13 *1287:X 0.000158544
14 *266:124 0.000420721
15 *266:120 0.000568613
16 *266:114 0.000951322
17 *266:103 0.000870366
18 *266:81 0.000393586
19 *266:61 0.00100352
20 *266:53 0.000815148
21 *266:49 0.000835667
22 *266:36 0.00038737
23 *266:12 0.000589989
24 *266:10 0.000637978
25 *1251:CLK *1344:A 0
26 *1253:CLK *1072:A1 0.000648154
27 *1253:CLK *1087:A 2.23407e-05
28 *1253:CLK *1349:A 0
29 *1253:CLK *270:92 2.04793e-05
30 *1257:CLK *1070:A1 0
31 *1257:CLK *1072:S 0.000112971
32 *1257:CLK *297:21 0.000116853
33 *1257:CLK *313:23 7.89689e-05
34 *1261:CLK *1064:A1 4.82919e-05
35 *1261:CLK *1337:A 0
36 *1261:CLK *313:41 0
37 *1266:CLK *1344:A 0.000875017
38 *1266:CLK *293:101 0.000714045
39 *266:12 *1344:A 0
40 *266:53 *1349:A 0
41 *266:53 *270:75 5.10957e-05
42 *266:53 *271:47 0.000293719
43 *266:53 *271:62 0.000152821
44 *266:53 *271:72 9.84957e-05
45 *266:61 *271:62 2.65814e-06
46 *266:61 *271:72 1.1392e-05
47 *266:61 *354:10 4.66108e-05
48 *266:81 *270:75 4.43871e-06
49 *266:81 *270:92 6.48917e-05
50 *266:81 *271:72 8.25202e-05
51 *266:103 *269:10 0.000128583
52 *266:120 *1337:A 0.000118527
53 *266:120 *297:21 0.000111378
54 *266:124 *1337:A 0
55 *266:124 *313:41 0
56 *1010:A *266:53 3.86607e-05
57 *1088:S *1253:CLK 0.000253808
58 *1091:A2 *1264:CLK 0.000107112
59 *1091:A2 *266:53 5.12017e-06
60 *1091:A2 *266:61 0.000259533
61 *1091:B1 *1253:CLK 0.000104657
62 *1091:B1 *266:81 3.12319e-05
63 *1102:A *266:36 0.000122801
64 *1154:A3 *1266:CLK 5.55458e-05
65 *1157:B1 *1253:CLK 7.21296e-06
66 *1249:D *266:36 2.75145e-05
67 *1249:D *266:49 6.43271e-05
68 *1250:D *1250:CLK 2.68526e-05
69 *1250:D *266:12 0
70 *1251:D *1251:CLK 4.89295e-05
71 *1252:D *1252:CLK 0.00010804
72 *1258:RESET_B *266:120 0
73 *1260:D *1261:CLK 6.93993e-05
74 *1264:D *1264:CLK 3.02303e-05
75 *1264:D *1266:CLK 3.68682e-05
76 *1266:D *1266:CLK 4.11281e-05
77 *154:14 *1252:CLK 0.000119756
78 *155:96 *1266:CLK 0
79 *156:93 *1266:CLK 0
80 *187:14 *266:10 8.76033e-05
81 *187:14 *266:12 5.16418e-05
82 *250:99 *1252:CLK 4.85879e-05
83 *250:103 *1257:CLK 0
84 *250:103 *266:120 0
85 *251:114 *266:114 8.81869e-05
86 *261:8 *1266:CLK 0
*RES
1 *1287:X *266:10 5.865 
2 *266:10 *266:12 4.695 
3 *266:12 *1251:CLK 7.98 
4 *266:12 *1250:CLK 4.05 
5 *266:10 *266:36 4.865 
6 *266:36 *1249:CLK 1.96 
7 *266:36 *266:49 2.64 
8 *266:49 *266:53 8.225 
9 *266:53 *266:61 10.415 
10 *266:61 *1264:CLK 4.12 
11 *266:61 *1266:CLK 17.69 
12 *266:53 *266:81 1.635 
13 *266:81 *1252:CLK 5.79 
14 *266:81 *1253:CLK 11.61 
15 *266:49 *266:103 4.935 
16 *266:103 *1258:CLK 2.215 
17 *266:103 *266:114 6.59 
18 *266:114 *266:120 6.485 
19 *266:120 *266:124 6.185 
20 *266:124 *1261:CLK 6.885 
21 *266:124 *1260:CLK 3.6 
22 *266:120 *1259:CLK 2.74 
23 *266:114 *1257:CLK 9.855 
*END

*D_NET *267 0.0142833
*CONN
*I *1240:CLK I *D sky130_fd_sc_hd__dfrtp_1
*I *1243:CLK I *D sky130_fd_sc_hd__dfrtp_4
*I *1242:CLK I *D sky130_fd_sc_hd__dfrtp_4
*I *1241:CLK I *D sky130_fd_sc_hd__dfrtp_4
*I *1244:CLK I *D sky130_fd_sc_hd__dfrtp_2
*I *1269:CLK I *D sky130_fd_sc_hd__dfrtp_1
*I *1270:CLK I *D sky130_fd_sc_hd__dfrtp_4
*I *1271:CLK I *D sky130_fd_sc_hd__dfrtp_1
*I *1245:CLK I *D sky130_fd_sc_hd__dfrtp_4
*I *1288:X O *D sky130_fd_sc_hd__clkbuf_16
*CAP
1 *1240:CLK 0.000267439
2 *1243:CLK 0
3 *1242:CLK 0.000121394
4 *1241:CLK 0.000888979
5 *1244:CLK 7.08262e-05
6 *1269:CLK 6.72652e-05
7 *1270:CLK 2.15401e-05
8 *1271:CLK 0.000389925
9 *1245:CLK 0.000326193
10 *1288:X 0
11 *267:79 0.00144681
12 *267:73 0.00101737
13 *267:69 0.00113778
14 *267:56 0.00063623
15 *267:45 0.000403324
16 *267:23 0.000688685
17 *267:21 0.000914097
18 *267:4 0.000903015
19 *1240:CLK *308:12 0
20 *1245:CLK *352:20 8.40269e-05
21 *267:21 *352:20 0.000779032
22 *267:23 *352:20 0.000155056
23 *267:73 *1149:A0 1.08758e-05
24 *1100:B *1271:CLK 5.83121e-06
25 *1100:C *1271:CLK 0.000151534
26 *1127:A1 *1245:CLK 7.47145e-05
27 *1129:A *1245:CLK 0
28 *1133:A0 *1244:CLK 2.86975e-05
29 *1133:A1 *267:56 0
30 *1133:S *1244:CLK 0
31 *1141:B *1241:CLK 0.000155056
32 *1142:A1 *1241:CLK 0
33 *1143:A *1241:CLK 0
34 *1143:A *1242:CLK 0
35 *1149:S *1240:CLK 2.97004e-06
36 *1149:S *267:23 6.36104e-05
37 *1149:S *267:56 0.000101322
38 *1149:S *267:69 0.000175463
39 *1150:A *1240:CLK 0
40 *1150:A *267:73 7.33706e-05
41 *1164:A2 *1270:CLK 4.66108e-05
42 *1164:A2 *1271:CLK 0.000307354
43 *1164:A2 *267:23 2.92496e-05
44 *1164:B1 *1270:CLK 2.16917e-05
45 *1174:A *1269:CLK 8.49205e-05
46 *1175:A0 *267:23 0.000407465
47 *1175:A0 *267:45 0.000116853
48 *1175:A0 *267:56 0.000497423
49 *1191:B *1241:CLK 0
50 *1192:B *267:79 8.65961e-05
51 *1240:D *1240:CLK 1.29885e-05
52 *1241:RESET_B *1241:CLK 0.000228647
53 *1242:D *1242:CLK 4.91189e-05
54 *1242:RESET_B *267:79 5.30673e-05
55 *1243:D *267:73 6.66768e-05
56 *1243:D *267:79 2.86975e-05
57 *1244:D *267:56 8.53113e-06
58 *1244:D *267:69 9.37731e-05
59 *1245:D *1245:CLK 5.85042e-05
60 *1288:A *267:21 8.73389e-06
61 *186:44 *1245:CLK 0
62 *192:16 *1271:CLK 7.1301e-06
63 *192:48 *267:23 0
64 *197:38 *1245:CLK 0
65 *201:81 *1241:CLK 0
66 *203:18 *267:23 0
67 *247:22 *1270:CLK 8.40269e-05
68 *247:107 *267:56 0
69 *247:107 *267:69 0
70 *253:10 *1241:CLK 0.000232403
71 *256:6 *1244:CLK 8.73389e-06
72 *256:10 *267:56 0.000109157
73 *256:16 *267:56 0.000472504
*RES
1 *1288:X *267:4 1.6 
2 *267:4 *1245:CLK 11.09 
3 *267:4 *267:21 9.695 
4 *267:21 *267:23 6.99 
5 *267:23 *1271:CLK 10.71 
6 *267:23 *1270:CLK 4.395 
7 *267:21 *267:45 1.38 
8 *267:45 *1269:CLK 4.74 
9 *267:45 *267:56 8.775 
10 *267:56 *1244:CLK 4.755 
11 *267:56 *267:69 5.97 
12 *267:69 *267:73 11.42 
13 *267:73 *267:79 9.02 
14 *267:79 *1241:CLK 18.96 
15 *267:79 *1242:CLK 5.745 
16 *267:73 *1243:CLK 1.6 
17 *267:69 *1240:CLK 7.08 
*END

*D_NET *268 0.00952847
*CONN
*I *1219:A I *D sky130_fd_sc_hd__buf_1
*I *1239:CLK I *D sky130_fd_sc_hd__dfrtp_1
*I *1237:CLK I *D sky130_fd_sc_hd__dfrtp_1
*I *1236:CLK I *D sky130_fd_sc_hd__dfrtp_1
*I *1272:CLK I *D sky130_fd_sc_hd__dfrtp_1
*I *1238:CLK I *D sky130_fd_sc_hd__dfrtp_1
*I *1289:X O *D sky130_fd_sc_hd__clkbuf_16
*CAP
1 *1219:A 0.000631415
2 *1239:CLK 0.000104811
3 *1237:CLK 0
4 *1236:CLK 0.000246332
5 *1272:CLK 0.000360019
6 *1238:CLK 0.000223283
7 *1289:X 5.60678e-05
8 *268:56 0.00102558
9 *268:16 0.000845643
10 *268:14 0.000760104
11 *268:10 0.000339954
12 *268:6 0.000433941
13 *1219:A *1028:A1 0
14 *1219:A *1033:A1 0
15 *1239:CLK *1239:D 5.83121e-06
16 *1272:CLK *1167:A1 0.000152127
17 *1272:CLK *1272:D 6.58339e-05
18 *1272:CLK *359:91 0.000204463
19 *268:6 *1155:A1 1.08758e-05
20 *268:10 *361:25 0.000114492
21 *268:10 *361:40 2.07184e-05
22 *268:16 *1180:B 0.000150568
23 *268:16 *305:16 0.000121023
24 *268:16 *310:10 7.64058e-05
25 *268:56 *1155:A1 3.57349e-05
26 *268:56 *1155:B1 4.0843e-05
27 *1152:A3 *268:6 7.95174e-06
28 *1152:A3 *268:56 7.5269e-05
29 *1155:A2 *268:6 1.0766e-05
30 *1167:B1 *1219:A 0
31 *1172:A *268:6 0.000139438
32 *1172:A *268:56 0.000105508
33 *1189:B *1219:A 0.000141606
34 *1189:B *268:56 0.000554876
35 *1236:RESET_B *268:14 0.000118527
36 *1238:D *1238:CLK 7.35729e-05
37 *1238:RESET_B *268:16 7.69078e-05
38 *1272:RESET_B *1272:CLK 5.39961e-05
39 *1275:D *1219:A 0
40 *1284:A *268:10 0
41 *1284:A *268:14 0
42 *1284:A *268:56 0.00020613
43 *1285:A *1219:A 0
44 *1285:A *268:56 0
45 *1308:A *268:56 4.82919e-05
46 *131:110 *1238:CLK 0.00025194
47 *131:110 *1272:CLK 7.55391e-05
48 *131:127 *1272:CLK 0.000114017
49 *132:20 *1272:CLK 5.85534e-05
50 *193:50 *268:10 0.000127366
51 *193:50 *268:14 0.00053347
52 *261:42 *1272:CLK 0
53 *264:38 *1219:A 0.000201508
54 *264:53 *1219:A 0.000527175
*RES
1 *1289:X *268:6 3.085 
2 *268:6 *268:10 4.145 
3 *268:10 *268:14 8.225 
4 *268:14 *268:16 5.28 
5 *268:16 *1238:CLK 6.535 
6 *268:16 *1272:CLK 13.685 
7 *268:14 *1236:CLK 5.155 
8 *268:10 *1237:CLK 3.6 
9 *268:6 *268:56 10.31 
10 *268:56 *1239:CLK 5.1 
11 *268:56 *1219:A 15.975 
*END

*D_NET *269 0.00219724
*CONN
*I *1043:C I *D sky130_fd_sc_hd__and3_1
*I *1009:C I *D sky130_fd_sc_hd__or3_1
*I *1047:A I *D sky130_fd_sc_hd__clkbuf_4
*I *1249:Q O *D sky130_fd_sc_hd__dfrtp_1
*CAP
1 *1043:C 0.000112896
2 *1009:C 0
3 *1047:A 9.23454e-05
4 *1249:Q 0.000300552
5 *269:16 0.000131702
6 *269:10 0.000452805
7 *1043:C *270:75 7.18817e-05
8 *1047:A *1009:A 4.66108e-05
9 *1047:A *313:19 0.000101584
10 *269:10 *270:75 2.59981e-05
11 *269:10 *271:47 0.0001267
12 *269:16 *313:19 4.82863e-05
13 *1044:A *1043:C 5.35969e-06
14 *1075:A2 *1047:A 3.00381e-05
15 *135:6 *1047:A 2.30292e-05
16 *248:73 *1043:C 0.000139933
17 *248:73 *269:10 0.00035893
18 *266:103 *269:10 0.000128583
*RES
1 *1249:Q *269:10 10.995 
2 *269:10 *269:16 2.81 
3 *269:16 *1047:A 3.775 
4 *269:16 *1009:C 1.6 
5 *269:10 *1043:C 5.9325 
*END

*D_NET *270 0.0111023
*CONN
*I *1009:B I *D sky130_fd_sc_hd__or3_1
*I *1087:C I *D sky130_fd_sc_hd__or4b_1
*I *1162:B I *D sky130_fd_sc_hd__nand3_1
*I *1043:B I *D sky130_fd_sc_hd__and3_1
*I *1094:B1_N I *D sky130_fd_sc_hd__a21bo_1
*I *1054:A_N I *D sky130_fd_sc_hd__nand2b_2
*I *1074:C1 I *D sky130_fd_sc_hd__o2111a_1
*I *1095:B I *D sky130_fd_sc_hd__or2_1
*I *1048:B I *D sky130_fd_sc_hd__nand2_2
*I *1250:Q O *D sky130_fd_sc_hd__dfrtp_4
*CAP
1 *1009:B 0
2 *1087:C 0
3 *1162:B 0.000427509
4 *1043:B 0
5 *1094:B1_N 0
6 *1054:A_N 3.42266e-05
7 *1074:C1 0.000178494
8 *1095:B 0
9 *1048:B 0.000175687
10 *1250:Q 0.000423315
11 *270:92 0.000707128
12 *270:75 0.000392793
13 *270:52 0.000393854
14 *270:32 0.000386849
15 *270:28 0.000535809
16 *270:24 0.000839292
17 *270:14 0.00083519
18 *270:12 0.000449554
19 *1048:B *1074:B1 4.91325e-05
20 *1048:B *271:18 8.8266e-05
21 *1048:B *271:20 0.000159233
22 *1162:B *1057:A1 1.08758e-05
23 *1162:B *271:93 0.000171146
24 *270:12 *271:10 0
25 *270:12 *271:47 0
26 *270:12 *313:19 0.000234674
27 *270:14 *313:19 4.82919e-05
28 *270:24 *1344:A 0.000102133
29 *270:24 *313:19 0.000758326
30 *270:32 *1344:A 0
31 *270:75 *271:47 4.9968e-05
32 *270:75 *271:62 0.000160658
33 *270:92 *1072:A1 0.000113797
34 *270:92 *1087:A 8.49205e-05
35 *1043:C *270:75 7.18817e-05
36 *1044:A *270:75 9.50342e-06
37 *1044:A *270:92 0.000134831
38 *1055:A *270:52 8.65961e-05
39 *1058:B1 *1162:B 1.52352e-05
40 *1074:D1 *1074:C1 7.07431e-05
41 *1090:A1 *1162:B 8.57024e-05
42 *1090:A1 *270:92 9.91965e-05
43 *1091:B1 *270:92 0.000118081
44 *1094:A2 *270:28 1.34594e-05
45 *1097:A *270:32 0.000110215
46 *1101:B1 *270:32 1.94892e-05
47 *1102:A *270:24 6.77501e-05
48 *1102:A *270:28 9.4087e-05
49 *1205:A *270:75 0
50 *1249:RESET_B *270:12 0.000162325
51 *1253:CLK *270:92 2.04793e-05
52 *1286:A *1074:C1 3.40685e-05
53 *1286:A *270:52 6.3124e-06
54 *1287:A *270:52 1.34503e-05
55 *154:14 *270:92 7.53596e-05
56 *156:14 *1162:B 8.35068e-05
57 *156:16 *1162:B 0.000641286
58 *156:18 *1162:B 0.000153816
59 *156:24 *1162:B 4.94475e-05
60 *156:108 *270:32 5.39961e-05
61 *156:108 *270:52 7.06865e-05
62 *161:14 *270:32 1.22762e-05
63 *161:14 *270:52 2.25075e-05
64 *187:14 *270:24 0.00010004
65 *248:73 *270:12 0
66 *248:73 *270:75 2.03321e-05
67 *249:111 *270:12 0.000141599
68 *249:122 *270:12 0.00048653
69 *266:53 *270:75 5.10957e-05
70 *266:81 *270:75 4.43871e-06
71 *266:81 *270:92 6.48917e-05
72 *269:10 *270:75 2.59981e-05
*RES
1 *1250:Q *270:12 15.02 
2 *270:12 *270:14 0.45 
3 *270:14 *270:24 15.055 
4 *270:24 *270:28 3.83 
5 *270:28 *270:32 6.44 
6 *270:32 *1048:B 4.825 
7 *270:32 *1095:B 1.6 
8 *270:28 *270:52 4.7 
9 *270:52 *1074:C1 3.775 
10 *270:52 *1054:A_N 2.1325 
11 *270:24 *1094:B1_N 1.6 
12 *270:14 *270:75 5.42 
13 *270:75 *1043:B 3.6 
14 *270:75 *270:92 8.66 
15 *270:92 *1162:B 11.845 
16 *270:92 *1087:C 1.6 
17 *270:12 *1009:B 1.6 
*END

*D_NET *271 0.0107438
*CONN
*I *1043:A I *D sky130_fd_sc_hd__and3_1
*I *1087:A I *D sky130_fd_sc_hd__or4b_1
*I *1162:A I *D sky130_fd_sc_hd__nand3_1
*I *1057:A1 I *D sky130_fd_sc_hd__a31oi_1
*I *1058:A2 I *D sky130_fd_sc_hd__a41o_1
*I *1009:A I *D sky130_fd_sc_hd__or3_1
*I *1095:A I *D sky130_fd_sc_hd__or2_1
*I *1048:A I *D sky130_fd_sc_hd__nand2_2
*I *1074:B1 I *D sky130_fd_sc_hd__o2111a_1
*I *1251:Q O *D sky130_fd_sc_hd__dfrtp_4
*CAP
1 *1043:A 0
2 *1087:A 6.31003e-05
3 *1162:A 5.94375e-05
4 *1057:A1 0.000121178
5 *1058:A2 0.000132245
6 *1009:A 1.36534e-05
7 *1095:A 0
8 *1048:A 0
9 *1074:B1 0.000412888
10 *1251:Q 0.000468664
11 *271:93 0.000422445
12 *271:76 0.00106615
13 *271:72 0.000920241
14 *271:62 0.000241145
15 *271:47 0.000423192
16 *271:20 0.000479335
17 *271:18 0.000894405
18 *271:10 0.00163008
19 *1009:A *313:19 4.66108e-05
20 *1058:A2 *1058:A1 1.19928e-05
21 *1074:B1 *274:8 5.71917e-05
22 *1074:B1 *274:19 9.57888e-05
23 *1074:B1 *274:32 5.4256e-05
24 *271:10 *1349:A 0
25 *271:47 *1349:A 0
26 *271:76 *293:101 1.34503e-05
27 *271:93 *293:101 3.4222e-05
28 *1047:A *1009:A 4.66108e-05
29 *1048:B *1074:B1 4.91325e-05
30 *1048:B *271:18 8.8266e-05
31 *1048:B *271:20 0.000159233
32 *1057:A2 *1057:A1 6.69608e-06
33 *1057:A2 *1162:A 8.7152e-06
34 *1057:B1 *1057:A1 6.35427e-06
35 *1057:B1 *1162:A 1.0911e-05
36 *1058:B1 *1057:A1 2.8501e-05
37 *1058:B1 *1058:A2 4.66826e-05
38 *1058:B1 *271:76 2.05056e-05
39 *1058:B1 *271:93 7.06865e-05
40 *1090:A1 *1087:A 8.49205e-05
41 *1091:A1 *271:76 7.16048e-06
42 *1091:A2 *271:72 0.00015848
43 *1091:B1 *1087:A 7.23602e-05
44 *1091:B1 *271:72 7.3253e-05
45 *1162:B *1057:A1 1.08758e-05
46 *1162:B *271:93 0.000171146
47 *1218:B *271:76 3.05267e-05
48 *1250:D *271:18 0.000310966
49 *1250:RESET_B *271:10 6.73665e-05
50 *1251:RESET_B *271:10 0
51 *1253:CLK *1087:A 2.23407e-05
52 *136:10 *271:72 8.73147e-06
53 *136:29 *1087:A 5.65627e-05
54 *136:29 *271:72 1.37864e-05
55 *155:96 *1058:A2 8.73389e-06
56 *155:96 *271:93 2.34423e-05
57 *156:51 *1162:A 4.06518e-05
58 *156:93 *271:93 9.14049e-05
59 *157:8 *1074:B1 2.68464e-05
60 *157:27 *1074:B1 0
61 *236:14 *1162:A 1.79483e-05
62 *248:73 *271:47 0
63 *249:111 *271:10 0
64 *250:91 *271:76 2.75229e-05
65 *250:99 *271:76 0.000150982
66 *266:53 *271:47 0.000293719
67 *266:53 *271:62 0.000152821
68 *266:53 *271:72 9.84957e-05
69 *266:61 *271:62 2.65814e-06
70 *266:61 *271:72 1.1392e-05
71 *266:81 *271:72 8.25202e-05
72 *269:10 *271:47 0.0001267
73 *270:12 *271:10 0
74 *270:12 *271:47 0
75 *270:75 *271:47 4.9968e-05
76 *270:75 *271:62 0.000160658
77 *270:92 *1087:A 8.49205e-05
*RES
1 *1251:Q *271:10 11.415 
2 *271:10 *271:18 12.83 
3 *271:18 *271:20 1.485 
4 *271:20 *1074:B1 13.85 
5 *271:20 *1048:A 1.6 
6 *271:18 *1095:A 1.6 
7 *271:10 *271:47 7.5 
8 *271:47 *1009:A 4.05 
9 *271:47 *271:62 4.34 
10 *271:62 *271:72 6.17 
11 *271:72 *271:76 10.04 
12 *271:76 *1058:A2 3.085 
13 *271:76 *271:93 8.515 
14 *271:93 *1057:A1 3.445 
15 *271:93 *1162:A 6.665 
16 *271:72 *1087:A 5.775 
17 *271:62 *1043:A 1.6 
*END

*D_NET *272 0.00152778
*CONN
*I *1081:A I *D sky130_fd_sc_hd__or3b_1
*I *1077:A I *D sky130_fd_sc_hd__inv_2
*I *1254:Q O *D sky130_fd_sc_hd__dfrtp_1
*CAP
1 *1081:A 9.2198e-05
2 *1077:A 2.98504e-05
3 *1254:Q 0.000321749
4 *272:14 0.000443797
5 *1077:A *1080:A1 7.17879e-05
6 *272:14 *1080:A1 2.20014e-05
7 *272:14 *274:8 0
8 *1078:A2 *1081:A 1.42807e-05
9 *1078:A2 *272:14 0
10 *1080:A2 *272:14 1.31227e-05
11 *1080:A3 *272:14 2.87867e-05
12 *1080:B1 *272:14 5.59592e-05
13 *155:10 *272:14 6.68849e-05
14 *155:18 *272:14 0.000139245
15 *161:39 *272:14 4.00541e-06
16 *176:8 *1077:A 8.52845e-05
17 *176:8 *272:14 8.41307e-05
18 *176:21 *1081:A 5.46982e-05
19 *179:14 *1081:A 0
*RES
1 *1254:Q *272:14 11.81 
2 *272:14 *1077:A 2.755 
3 *272:14 *1081:A 7.235 
*END

*D_NET *273 0.00651804
*CONN
*I *1074:A2 I *D sky130_fd_sc_hd__o2111a_1
*I *1163:B I *D sky130_fd_sc_hd__or4_1
*I *1110:A2 I *D sky130_fd_sc_hd__o311a_1
*I *1082:B1 I *D sky130_fd_sc_hd__a31o_1
*I *1080:A1 I *D sky130_fd_sc_hd__o31a_1
*I *1255:Q O *D sky130_fd_sc_hd__dfrtp_2
*CAP
1 *1074:A2 0.000368733
2 *1163:B 0.000146202
3 *1110:A2 0
4 *1082:B1 9.59675e-05
5 *1080:A1 8.39221e-05
6 *1255:Q 0.000503541
7 *273:42 0.000449456
8 *273:38 0.000892447
9 *273:23 0.000491751
10 *273:6 0.000762786
11 *1074:A2 *274:44 0
12 *1074:A2 *313:6 0.000461935
13 *1074:A2 *313:19 3.66286e-05
14 *273:38 *313:6 4.66108e-05
15 *273:42 *274:44 0
16 *1075:B2 *1074:A2 7.23533e-05
17 *1077:A *1080:A1 7.17879e-05
18 *1080:A2 *1080:A1 0.00019898
19 *1080:A2 *273:6 8.70076e-06
20 *1080:A3 *1080:A1 5.12969e-06
21 *1080:B1 *1080:A1 8.50369e-06
22 *1082:A2 *1082:B1 2.66875e-05
23 *1082:A2 *273:38 0
24 *1082:A3 *1082:B1 0.000137484
25 *1082:A3 *273:38 6.37724e-05
26 *1083:A *273:6 0.000128914
27 *1086:A1 *273:23 6.56448e-06
28 *1086:B1 *1080:A1 0
29 *1086:C1 *1080:A1 1.85674e-05
30 *1086:C1 *273:6 0.000268739
31 *1086:C1 *273:23 9.68865e-05
32 *1110:C1 *1163:B 8.74345e-06
33 *1111:A2 *1163:B 8.65961e-05
34 *1163:C *1163:B 0.000200201
35 *155:10 *273:42 0
36 *174:8 *273:38 5.72282e-05
37 *176:8 *1080:A1 1.52352e-05
38 *176:21 *273:23 0
39 *176:21 *273:42 6.96175e-05
40 *176:38 *1163:B 1.1561e-05
41 *176:38 *273:42 0.000509668
42 *179:14 *273:6 1.34503e-05
43 *179:14 *273:23 7.06865e-05
44 *272:14 *1080:A1 2.20014e-05
*RES
1 *1255:Q *273:6 7.915 
2 *273:6 *1080:A1 4.66 
3 *273:6 *273:23 7.165 
4 *273:23 *1082:B1 3.55 
5 *273:23 *273:38 2.88 
6 *273:38 *273:42 8.735 
7 *273:42 *1110:A2 3.6 
8 *273:42 *1163:B 6.855 
9 *273:38 *1074:A2 11.06 
*END

*D_NET *274 0.00432612
*CONN
*I *1074:A1 I *D sky130_fd_sc_hd__o2111a_1
*I *1163:A I *D sky130_fd_sc_hd__or4_1
*I *1110:A1 I *D sky130_fd_sc_hd__o311a_1
*I *1079:B1 I *D sky130_fd_sc_hd__a31o_1
*I *1078:A1 I *D sky130_fd_sc_hd__a21oi_1
*I *1256:Q O *D sky130_fd_sc_hd__dfrtp_1
*CAP
1 *1074:A1 0
2 *1163:A 0
3 *1110:A1 3.3567e-05
4 *1079:B1 5.05434e-05
5 *1078:A1 0.000307222
6 *1256:Q 0.000292359
7 *274:44 0.00061384
8 *274:32 0.000694779
9 *274:19 0.000287792
10 *274:8 0.000722325
11 *274:44 *1075:A1 0
12 *1074:A2 *274:44 0
13 *1074:B1 *274:8 5.71917e-05
14 *1074:B1 *274:19 9.57888e-05
15 *1074:B1 *274:32 5.4256e-05
16 *1075:B2 *274:44 0
17 *1076:B *1078:A1 1.61831e-05
18 *1076:B *274:19 0
19 *1076:B *274:32 0
20 *1096:B *274:8 0
21 *1097:B *274:8 0
22 *1163:C *1110:A1 0.000199043
23 *1221:B *274:44 0
24 *1286:A *274:44 0.000199833
25 *155:10 *274:44 0.000179709
26 *155:18 *1078:A1 8.57024e-05
27 *155:18 *274:19 0
28 *155:55 *274:44 0
29 *157:27 *274:8 0
30 *157:27 *274:32 0
31 *161:16 *1079:B1 0.000124895
32 *161:39 *274:32 0
33 *174:30 *274:44 0.000159397
34 *174:32 *274:32 0
35 *174:32 *274:44 4.43871e-06
36 *250:75 *1110:A1 0.000147251
37 *251:61 *274:44 0
38 *272:14 *274:8 0
39 *273:42 *274:44 0
*RES
1 *1256:Q *274:8 8.55 
2 *274:8 *1078:A1 7.155 
3 *274:8 *274:19 2.655 
4 *274:19 *1079:B1 4.74 
5 *274:19 *274:32 4.145 
6 *274:32 *274:44 14.65 
7 *274:44 *1110:A1 3.43 
8 *274:44 *1163:A 1.6 
9 *274:32 *1074:A1 1.6 
*END

*D_NET *275 0.00189972
*CONN
*I *1309:A I *D sky130_fd_sc_hd__dlygate4sd3_1
*I *1036:A1 I *D sky130_fd_sc_hd__mux2_1
*I *1273:Q O *D sky130_fd_sc_hd__dfrtp_1
*CAP
1 *1309:A 7.87596e-05
2 *1036:A1 0.000638496
3 *1273:Q 9.52202e-05
4 *275:6 0.000812476
5 *1036:A1 *1036:A0 5.062e-06
6 *1036:A1 *1273:CLK 2.20732e-05
7 *1013:S *1309:A 0
8 *1036:S *1036:A1 0.000159259
9 *1273:D *1036:A1 2.49909e-05
10 *1273:RESET_B *1036:A1 1.32907e-06
11 *1273:RESET_B *1309:A 3.86529e-05
12 *1273:RESET_B *275:6 2.34022e-05
13 *138:49 *1309:A 0
*RES
1 *1273:Q *275:6 2.74 
2 *275:6 *1036:A1 9.22 
3 *275:6 *1309:A 6.98 
*END

*D_NET *276 0.00114761
*CONN
*I *1294:A I *D sky130_fd_sc_hd__dlygate4sd3_1
*I *1032:A1 I *D sky130_fd_sc_hd__mux2_1
*I *1274:Q O *D sky130_fd_sc_hd__dfrtp_1
*CAP
1 *1294:A 0.000308385
2 *1032:A1 0
3 *1274:Q 0.000105539
4 *276:8 0.000413924
5 *1294:A *1011:A0 8.52845e-05
6 *1294:A *1032:A0 0
7 *1294:A *1037:A1 0
8 *1294:A *1041:B2 0
9 *276:8 *1032:A0 3.31413e-05
10 *1032:S *1294:A 7.33728e-05
11 *1032:S *276:8 2.43747e-05
12 *1037:S *1294:A 7.26629e-05
13 *138:63 *1294:A 3.09233e-05
*RES
1 *1274:Q *276:8 3.445 
2 *276:8 *1032:A1 1.6 
3 *276:8 *1294:A 11.465 
*END

*D_NET *277 0.00910715
*CONN
*I *1033:A1 I *D sky130_fd_sc_hd__mux2_1
*I *1028:A1 I *D sky130_fd_sc_hd__mux2_1
*I *1275:Q O *D sky130_fd_sc_hd__dfrtp_1
*CAP
1 *1033:A1 0.000699887
2 *1028:A1 0.00191753
3 *1275:Q 0
4 *277:6 0.00261742
5 *1028:A1 *1025:A1 0
6 *1028:A1 *1338:A 0
7 *1028:A1 *1343:A 9.5433e-05
8 *1017:A0 *1028:A1 0
9 *1019:B *1028:A1 0
10 *1025:A0 *1028:A1 7.16437e-05
11 *1026:A *1028:A1 0.000321522
12 *1028:S *1028:A1 1.08758e-05
13 *1031:A *1028:A1 0.000625886
14 *1031:A *1033:A1 2.72785e-05
15 *1033:S *1033:A1 0.000154924
16 *1176:A *1028:A1 4.39319e-05
17 *1189:A *1028:A1 0
18 *1219:A *1028:A1 0
19 *1219:A *1033:A1 0
20 *1239:RESET_B *1028:A1 8.49454e-05
21 *1276:RESET_B *1028:A1 0
22 *1277:RESET_B *1028:A1 0.000124756
23 *132:42 *1028:A1 0.000598681
24 *132:59 *1028:A1 0.000400975
25 *132:65 *1028:A1 0.000373074
26 *134:119 *1033:A1 6.34952e-05
27 *264:29 *1033:A1 0.000209377
28 *264:38 *1033:A1 0.000393024
29 *264:53 *1033:A1 0.000272485
*RES
1 *1275:Q *277:6 3.6 
2 *277:6 *1028:A1 43.225 
3 *277:6 *1033:A1 16.755 
*END

*D_NET *278 0.00112544
*CONN
*I *1296:A I *D sky130_fd_sc_hd__dlygate4sd3_1
*I *1024:A1 I *D sky130_fd_sc_hd__mux2_1
*I *1276:Q O *D sky130_fd_sc_hd__dfrtp_1
*CAP
1 *1296:A 8.38669e-05
2 *1024:A1 0.000303249
3 *1276:Q 7.56888e-05
4 *278:8 0.000462804
5 *1296:A *1029:A1 0
6 *1025:A0 *1024:A1 0
7 *1025:A0 *1296:A 0
8 *1030:A *1024:A1 0
9 *1276:RESET_B *1024:A1 0
10 *1276:RESET_B *1296:A 0
11 *136:42 *1024:A1 0
12 *138:20 *1024:A1 0.000199833
*RES
1 *1276:Q *278:8 4.395 
2 *278:8 *1024:A1 8.595 
3 *278:8 *1296:A 4.98 
*END

*D_NET *279 0.00289751
*CONN
*I *1020:A1 I *D sky130_fd_sc_hd__mux2_1
*I *1303:A I *D sky130_fd_sc_hd__dlygate4sd3_1
*I *1277:Q O *D sky130_fd_sc_hd__dfrtp_1
*CAP
1 *1020:A1 0.000475975
2 *1303:A 0.000120372
3 *1277:Q 0.000217078
4 *279:10 0.000813426
5 *1020:A1 *1338:A 9.68865e-05
6 *1020:A1 *1343:A 0.000223484
7 *279:10 *1343:A 0.000143266
8 *1020:S *1020:A1 0.000349879
9 *136:74 *1020:A1 0.000292989
10 *136:74 *279:10 0.000139933
11 *136:89 *1020:A1 2.42236e-05
*RES
1 *1277:Q *279:10 7.065 
2 *279:10 *1303:A 5.085 
3 *279:10 *1020:A1 14.355 
*END

*D_NET *280 0.0010854
*CONN
*I *1016:A1 I *D sky130_fd_sc_hd__mux2_1
*I *1297:A I *D sky130_fd_sc_hd__dlygate4sd3_1
*I *1278:Q O *D sky130_fd_sc_hd__dfrtp_1
*CAP
1 *1016:A1 0.000123877
2 *1297:A 0
3 *1278:Q 0.000106072
4 *280:10 0.000229949
5 *1016:A1 *1338:A 0.000185626
6 *280:10 *1338:A 7.63204e-05
7 *1172:A *280:10 8.65961e-05
8 *1278:RESET_B *280:10 7.23602e-05
9 *136:89 *1016:A1 0.000166935
10 *136:89 *280:10 3.76596e-05
*RES
1 *1278:Q *280:10 6.03 
2 *280:10 *1297:A 3.6 
3 *280:10 *1016:A1 7.53 
*END

*D_NET *281 0.00263075
*CONN
*I *1011:A1 I *D sky130_fd_sc_hd__mux2_1
*I *1304:A I *D sky130_fd_sc_hd__dlygate4sd3_1
*I *1279:Q O *D sky130_fd_sc_hd__dfrtp_1
*CAP
1 *1011:A1 0.000392952
2 *1304:A 8.46914e-05
3 *1279:Q 7.65733e-05
4 *281:10 0.000554216
5 *1011:A1 *1326:A 0.000199405
6 *1011:A1 *1338:A 0
7 *1017:S *281:10 1.83756e-05
8 *1039:A *1011:A1 0.000106655
9 *1176:A *1304:A 0.000198939
10 *1181:A *1011:A1 0.000532697
11 *1181:A *281:10 0.000140912
12 *1280:RESET_B *1011:A1 0
13 *132:93 *1011:A1 0.000187766
14 *132:93 *281:10 0.000137571
15 *136:97 *1011:A1 0
*RES
1 *1279:Q *281:10 5.685 
2 *281:10 *1304:A 5.43 
3 *281:10 *1011:A1 12.93 
*END

*D_NET *282 0.00033843
*CONN
*I *1006:A I *D sky130_fd_sc_hd__buf_2
*I *1314:X O *D sky130_fd_sc_hd__clkbuf_1
*CAP
1 *1006:A 0.000112648
2 *1314:X 0.000112648
3 *1006:A *1344:A 6.31728e-05
4 *1006:A *300:16 4.99619e-05
5 *1097:A *1006:A 0
*RES
1 *1314:X *1006:A 9.285 
*END

*D_NET *283 0.00814935
*CONN
*I *1011:A0 I *D sky130_fd_sc_hd__mux2_1
*I *1315:X O *D sky130_fd_sc_hd__clkbuf_1
*CAP
1 *1011:A0 0.00178673
2 *1315:X 0.00178673
3 *1011:A0 *1032:A0 0.000367507
4 *1011:A0 *1041:B2 0.00088623
5 *1011:A0 *1326:A 0.000140653
6 *1011:A0 *1350:A 0.00153424
7 pass_thru_user_delay *1011:A0 4.99619e-05
8 pass_thru_user_reset *1011:A0 0.000279787
9 *1011:S *1011:A0 8.03337e-05
10 *1294:A *1011:A0 8.52845e-05
11 *1318:A *1011:A0 2.75229e-05
12 *1319:A *1011:A0 0.0001249
13 *136:103 *1011:A0 0.000999472
*RES
1 *1315:X *1011:A0 45.53 
*END

*D_NET *284 0.000188533
*CONN
*I *1004:A I *D sky130_fd_sc_hd__buf_2
*I *1316:X O *D sky130_fd_sc_hd__clkbuf_1
*CAP
1 *1004:A 9.42663e-05
2 *1316:X 9.42663e-05
*RES
1 *1316:X *1004:A 4.61 
*END

*D_NET *285 0.00203403
*CONN
*I *1298:A I *D sky130_fd_sc_hd__dlygate4sd3_1
*I *1326:A I *D sky130_fd_sc_hd__clkbuf_4
*I *1280:Q O *D sky130_fd_sc_hd__dfrtp_1
*CAP
1 *1298:A 0
2 *1326:A 0.000497226
3 *1280:Q 0.000205772
4 *285:12 0.000702998
5 *1326:A *1338:A 0
6 *1326:A *1345:A 0.000113247
7 *285:12 *1338:A 0.000141599
8 odata[3] *1326:A 2.65814e-06
9 *1011:A0 *1326:A 0.000140653
10 *1011:A1 *1326:A 0.000199405
11 *1011:S *1326:A 3.04704e-05
*RES
1 *1280:Q *285:12 8.72 
2 *285:12 *1326:A 14.69 
3 *285:12 *1298:A 1.6 
*END

*D_NET *286 0.001287
*CONN
*I *1327:A I *D sky130_fd_sc_hd__clkbuf_4
*I *1169:X O *D sky130_fd_sc_hd__clkbuf_1
*CAP
1 *1327:A 0.000306416
2 *1169:X 0.000306416
3 *1327:A *1333:A 0.000613507
4 oaddr[0] *1327:A 6.06649e-05
*RES
1 *1169:X *1327:A 14.64 
*END

*D_NET *287 0.00299386
*CONN
*I *1328:A I *D sky130_fd_sc_hd__clkbuf_4
*I *1170:Y O *D sky130_fd_sc_hd__o21ai_1
*CAP
1 *1328:A 0.000923976
2 *1170:Y 0.000923976
3 *1328:A *1145:A0 5.53249e-06
4 *1328:A *1333:A 0
5 *1109:S *1328:A 3.09233e-05
6 *1115:A2 *1328:A 0.000114492
7 *1115:A3 *1328:A 0.000136182
8 *1117:A1 *1328:A 0.000162311
9 *1117:A2 *1328:A 2.05056e-05
10 *1117:A3 *1328:A 3.13459e-05
11 *1117:B1 *1328:A 0
12 *1144:A *1328:A 6.10941e-05
13 *1145:A1 *1328:A 2.49909e-05
14 *1145:S *1328:A 1.52352e-05
15 *1170:A1 *1328:A 4.60123e-05
16 *1170:B1 *1328:A 1.14169e-05
17 *1179:A1 *1328:A 5.4256e-05
18 *1179:B1_N *1328:A 0
19 *192:56 *1328:A 0
20 *192:60 *1328:A 1.98144e-05
21 *198:8 *1328:A 0.000140912
22 *227:12 *1328:A 0.000137571
23 *257:34 *1328:A 0.000128197
24 *258:38 *1328:A 5.12017e-06
*RES
1 *1170:Y *1328:A 24.6 
*END

*D_NET *288 0.00673974
*CONN
*I *1329:A I *D sky130_fd_sc_hd__clkbuf_4
*I *1172:X O *D sky130_fd_sc_hd__buf_1
*CAP
1 *1329:A 0.00172172
2 *1172:X 0.00172172
3 *1329:A *1024:A0 0
4 *1329:A *1066:A1 0.000545249
5 *1329:A *298:23 0.000296775
6 *1329:A *298:40 0.00217654
7 oaddr[3] *1329:A 0
8 odata[1] *1329:A 2.51475e-05
9 odata[4] *1329:A 0
10 pass_thru_mgmt *1329:A 2.10433e-05
11 wrstb *1329:A 6.24871e-05
12 *1214:B *1329:A 0
13 *1322:A *1329:A 0
14 *136:74 *1329:A 9.00699e-05
15 *136:89 *1329:A 7.89767e-05
*RES
1 *1172:X *1329:A 48.705 
*END

*D_NET *289 0.000235288
*CONN
*I *1330:A I *D sky130_fd_sc_hd__clkbuf_4
*I *1174:X O *D sky130_fd_sc_hd__clkbuf_1
*CAP
1 *1330:A 6.62371e-05
2 *1174:X 6.62371e-05
3 *1330:A *1338:A 2.87867e-05
4 *136:89 *1330:A 7.4027e-05
*RES
1 *1174:X *1330:A 8.685 
*END

*D_NET *290 0.000603752
*CONN
*I *1331:A I *D sky130_fd_sc_hd__buf_2
*I *1176:X O *D sky130_fd_sc_hd__clkbuf_1
*CAP
1 *1331:A 0.000162293
2 *1176:X 0.000162293
3 *1331:A *1338:A 0.000139443
4 *1331:A *1346:A 7.42457e-05
5 *1176:A *1331:A 6.54766e-05
*RES
1 *1176:X *1331:A 10.32 
*END

*D_NET *291 0.000477564
*CONN
*I *1332:A I *D sky130_fd_sc_hd__clkbuf_4
*I *1178:X O *D sky130_fd_sc_hd__clkbuf_1
*CAP
1 *1332:A 0.000163982
2 *1178:X 0.000163982
3 *1332:A *1340:A 0.00012657
4 oaddr[5] *1332:A 2.30292e-05
5 oaddr[7] *1332:A 0
*RES
1 *1178:X *1332:A 10.32 
*END

*D_NET *292 0.00305369
*CONN
*I *1333:A I *D sky130_fd_sc_hd__clkbuf_4
*I *1179:X O *D sky130_fd_sc_hd__a21bo_1
*CAP
1 *1333:A 0.00100148
2 *1179:X 0.00100148
3 *1333:A *1168:A1 0.000167407
4 *1333:A *293:23 0
5 *1146:A1 *1333:A 2.87867e-05
6 *1147:A *1333:A 7.81876e-05
7 *1169:A *1333:A 6.74079e-05
8 *1241:D *1333:A 9.54399e-05
9 *1327:A *1333:A 0.000613507
10 *1328:A *1333:A 0
*RES
1 *1179:X *1333:A 28.44 
*END

*D_NET *293 0.0232512
*CONN
*I *1072:A1 I *D sky130_fd_sc_hd__mux2_1
*I *1088:A0 I *D sky130_fd_sc_hd__mux2_1
*I *1052:A1 I *D sky130_fd_sc_hd__a32o_1
*I *1058:A1 I *D sky130_fd_sc_hd__a41o_1
*I *1084:A I *D sky130_fd_sc_hd__nand2_1
*I *1281:A I *D sky130_fd_sc_hd__clkbuf_1
*I *1145:A0 I *D sky130_fd_sc_hd__mux2_1
*I *1168:A1 I *D sky130_fd_sc_hd__mux2_1
*I *1317:X O *D sky130_fd_sc_hd__buf_2
*CAP
1 *1072:A1 0.00110275
2 *1088:A0 0
3 *1052:A1 7.57791e-05
4 *1058:A1 2.48709e-05
5 *1084:A 2.2854e-05
6 *1281:A 0.000727716
7 *1145:A0 5.67227e-05
8 *1168:A1 0.000213023
9 *1317:X 0.000239443
10 *293:118 0.00156078
11 *293:101 0.000869259
12 *293:86 0.00142393
13 *293:67 0.00119098
14 *293:46 0.00304054
15 *293:23 0.00253113
16 *293:6 0.000718576
17 *1052:A1 *305:16 1.31519e-05
18 *1072:A1 *1072:S 3.00381e-05
19 *1072:A1 *1088:A1 2.05056e-05
20 *1072:A1 *356:10 8.00441e-05
21 *1072:A1 *362:12 4.99619e-05
22 *1084:A *1075:A1 9.53428e-06
23 *1084:A *1082:A1 8.53113e-06
24 *1084:A *357:31 5.23362e-05
25 *293:46 *1059:B 8.05595e-05
26 *293:46 *357:25 0
27 *293:67 *1075:A1 1.47347e-05
28 *293:67 *1084:B 2.49909e-05
29 *293:86 *357:25 3.13457e-05
30 *293:86 *357:31 0.000101315
31 *293:118 *1088:A1 2.75229e-05
32 *293:118 *305:16 9.13969e-05
33 *1052:A3 *1052:A1 4.82863e-05
34 *1052:A3 *293:101 0.000132842
35 *1058:A2 *1058:A1 1.19928e-05
36 *1058:B1 *1058:A1 4.66108e-05
37 *1058:B1 *293:101 0.000198143
38 *1088:S *293:118 1.47256e-05
39 *1120:A2 *293:46 0
40 *1131:B *293:46 0.000185492
41 *1140:A *293:46 0.000688432
42 *1144:A *1145:A0 0
43 *1146:A0 *293:46 0.000161529
44 *1146:A1 *1145:A0 0
45 *1146:S *293:46 0.000194579
46 *1153:A1 *293:118 8.40269e-05
47 *1153:A3 *1052:A1 8.23457e-05
48 *1153:A3 *293:101 3.59971e-05
49 *1153:A3 *293:118 2.75025e-05
50 *1157:B1 *1072:A1 7.18452e-06
51 *1184:A *293:46 0
52 *1241:D *293:6 5.35969e-06
53 *1252:D *1072:A1 0.000274659
54 *1253:CLK *1072:A1 0.000648154
55 *1266:CLK *293:101 0.000714045
56 *1266:D *1052:A1 8.34281e-06
57 *1266:D *293:118 5.83121e-06
58 *1268:D *293:46 0.000139245
59 *1271:D *293:46 0.000120186
60 *1328:A *1145:A0 5.53249e-06
61 *1333:A *1168:A1 0.000167407
62 *1333:A *293:23 0
63 *131:61 *293:46 0
64 *131:76 *293:46 0
65 *133:34 *1281:A 0.000355772
66 *133:34 *293:46 0
67 *133:49 *293:46 0.000189299
68 *133:66 *293:46 0.000496622
69 *154:14 *1072:A1 0.000232084
70 *155:6 *293:86 0.000458696
71 *155:51 *293:86 0.000417104
72 *155:77 *293:86 0.000261885
73 *155:96 *1058:A1 4.66108e-05
74 *155:96 *293:86 0.000145241
75 *155:96 *293:101 8.39141e-05
76 *155:104 *1052:A1 2.75145e-05
77 *155:104 *293:118 0
78 *156:93 *293:101 6.58955e-06
79 *157:50 *293:101 5.64768e-05
80 *165:8 *1084:A 2.4997e-05
81 *165:8 *293:46 0
82 *165:8 *293:86 5.02217e-05
83 *165:28 *1084:A 9.50342e-06
84 *187:10 *1052:A1 4.0843e-05
85 *197:38 *293:46 3.26822e-05
86 *201:14 *293:46 0
87 *246:24 *293:46 4.31921e-05
88 *246:66 *293:46 0.00016295
89 *246:75 *293:46 0.000141217
90 *250:36 *1281:A 0.000353534
91 *250:99 *1072:A1 6.07119e-05
92 *250:133 *1072:A1 6.36594e-05
93 *251:29 *1281:A 0
94 *251:55 *1281:A 0
95 *251:55 *293:46 0.000119285
96 *253:12 *1168:A1 0
97 *253:12 *293:23 0
98 *253:36 *1168:A1 0
99 *257:14 *293:46 0.000101317
100 *257:88 *293:46 0.000448027
101 *265:12 *1281:A 0.00019199
102 *265:26 *1281:A 2.49909e-05
103 *270:92 *1072:A1 0.000113797
104 *271:76 *293:101 1.34503e-05
105 *271:93 *293:101 3.4222e-05
*RES
1 *1317:X *293:6 4.12 
2 *293:6 *1168:A1 10.295 
3 *293:6 *293:23 5.63 
4 *293:23 *1145:A0 4.47 
5 *293:23 *293:46 48.105 
6 *293:46 *1281:A 21.935 
7 *293:46 *293:67 3.485 
8 *293:67 *1084:A 4.3275 
9 *293:67 *293:86 17.3 
10 *293:86 *1058:A1 2.395 
11 *293:86 *293:101 13.66 
12 *293:101 *1052:A1 3.805 
13 *293:101 *293:118 6.78 
14 *293:118 *1088:A0 1.6 
15 *293:118 *1072:A1 25.88 
*END

*D_NET *294 0.0033147
*CONN
*I *1109:A0 I *D sky130_fd_sc_hd__mux2_1
*I *1334:A I *D sky130_fd_sc_hd__clkbuf_4
*I *1105:X O *D sky130_fd_sc_hd__buf_1
*CAP
1 *1109:A0 0.000112898
2 *1334:A 0.000907172
3 *1105:X 0.000189032
4 *294:8 0.0012091
5 *1109:A0 *1112:A0 7.4027e-05
6 odata[7] *1334:A 0
7 *1103:B_N *1109:A0 0
8 *1105:A *1109:A0 0
9 *1113:A *1109:A0 0
10 *1113:A *1334:A 0.000124007
11 *1178:A *1334:A 0.000533741
12 *1248:D *1334:A 9.73442e-05
13 *265:79 *1334:A 6.73751e-05
*RES
1 *1105:X *294:8 4.3075 
2 *294:8 *1334:A 25.2425 
3 *294:8 *1109:A0 7.6175 
*END

*D_NET *295 0.0003169
*CONN
*I *1335:A I *D sky130_fd_sc_hd__clkbuf_4
*I *1281:X O *D sky130_fd_sc_hd__clkbuf_1
*CAP
1 *1335:A 4.45239e-05
2 *1281:X 4.45239e-05
3 *1335:A *1305:A 0.000116165
4 *1262:RESET_B *1335:A 7.4027e-05
5 *250:36 *1335:A 3.76596e-05
*RES
1 *1281:X *1335:A 8.835 
*END

*D_NET *296 0.00382072
*CONN
*I *1336:A I *D sky130_fd_sc_hd__clkbuf_4
*I *1072:A0 I *D sky130_fd_sc_hd__mux2_1
*I *1070:A1 I *D sky130_fd_sc_hd__mux2_1
*I *1257:Q O *D sky130_fd_sc_hd__dfrtp_1
*CAP
1 *1336:A 0.00019869
2 *1072:A0 0.000186141
3 *1070:A1 0.000332838
4 *1257:Q 0
5 *296:8 0.000901467
6 *296:4 0.000581179
7 *1070:A1 *1068:A1 0.000150653
8 *1070:A1 *1070:A0 1.08758e-05
9 *1070:A1 *1072:S 9.49289e-05
10 *1070:A1 *313:23 5.51245e-05
11 *1072:A0 *1072:S 6.38036e-05
12 *1336:A *1028:A0 0.00054761
13 *1336:A *298:40 0.00054761
14 *1257:CLK *1070:A1 0
15 *1257:D *1072:A0 7.06865e-05
16 *1257:D *296:8 2.75229e-05
17 *250:133 *1072:A0 5.15941e-05
*RES
1 *1257:Q *296:4 1.6 
2 *296:4 *296:8 7.625 
3 *296:8 *1070:A1 10.14 
4 *296:8 *1072:A0 6.885 
5 *296:4 *1336:A 12.965 
*END

*D_NET *297 0.00295927
*CONN
*I *1068:A1 I *D sky130_fd_sc_hd__mux2_1
*I *1070:A0 I *D sky130_fd_sc_hd__mux2_1
*I *1337:A I *D sky130_fd_sc_hd__clkbuf_4
*I *1258:Q O *D sky130_fd_sc_hd__dfrtp_1
*CAP
1 *1068:A1 9.35668e-05
2 *1070:A0 3.4754e-05
3 *1337:A 0.000533203
4 *1258:Q 0.00013016
5 *297:21 0.00027057
6 *297:8 0.000805612
7 *1068:A1 *313:30 0.000200099
8 *1068:A1 *313:41 7.50252e-05
9 *1337:A *1064:A1 5.72091e-05
10 *1337:A *313:41 0
11 *297:21 *313:41 0
12 *1067:A *1337:A 0
13 *1070:A1 *1068:A1 0.000150653
14 *1070:A1 *1070:A0 1.08758e-05
15 *1215:A *1337:A 0
16 *1257:CLK *297:21 0.000116853
17 *1260:D *1337:A 0
18 *1261:CLK *1337:A 0
19 *1261:D *1337:A 6.55328e-05
20 *251:114 *297:8 0.00018525
21 *266:120 *1337:A 0.000118527
22 *266:120 *297:21 0.000111378
23 *266:124 *1337:A 0
*RES
1 *1258:Q *297:8 5.43 
2 *297:8 *1337:A 13.395 
3 *297:8 *297:21 4.655 
4 *297:21 *1070:A0 2.05 
5 *297:21 *1068:A1 4.465 
*END

*D_NET *298 0.0129518
*CONN
*I *1338:A I *D sky130_fd_sc_hd__clkbuf_4
*I *1068:A0 I *D sky130_fd_sc_hd__mux2_1
*I *1066:A1 I *D sky130_fd_sc_hd__mux2_1
*I *1259:Q O *D sky130_fd_sc_hd__dfrtp_1
*CAP
1 *1338:A 0.000995198
2 *1068:A0 0.000350651
3 *1066:A1 0.000515704
4 *1259:Q 8.09894e-05
5 *298:40 0.00160948
6 *298:23 0.00104358
7 *298:8 0.00067534
8 *1066:A1 *1028:A0 0.000357514
9 *1068:A0 *313:41 4.77719e-05
10 *1338:A *1343:A 2.92496e-05
11 *1338:A *1345:A 3.68682e-05
12 *1338:A *1346:A 0.000225541
13 *298:23 *1028:A0 0.000162184
14 *298:40 *1028:A0 0.000303937
15 *298:40 *1343:A 4.66108e-05
16 oaddr[4] *1338:A 1.92979e-05
17 *1011:A1 *1338:A 0
18 *1016:A1 *1338:A 0.000185626
19 *1017:A0 *1338:A 0.000319167
20 *1019:B *1338:A 0.000508724
21 *1020:A1 *1338:A 9.68865e-05
22 *1028:A1 *1338:A 0
23 *1039:A *1338:A 0
24 *1069:A *1068:A0 5.05437e-05
25 *1214:A *1066:A1 4.82863e-05
26 *1214:B *1066:A1 8.49205e-05
27 *1260:RESET_B *1066:A1 4.82863e-05
28 *1278:RESET_B *1338:A 2.37234e-05
29 *1280:RESET_B *1338:A 0
30 *1321:A *1066:A1 4.99619e-05
31 *1324:A *1338:A 0
32 *1326:A *1338:A 0
33 *1329:A *1066:A1 0.000545249
34 *1329:A *298:23 0.000296775
35 *1329:A *298:40 0.00217654
36 *1330:A *1338:A 2.87867e-05
37 *1331:A *1338:A 0.000139443
38 *1336:A *298:40 0.00054761
39 *132:93 *1338:A 0
40 *136:55 *298:40 0.000409132
41 *136:74 *298:40 0.000674296
42 *136:89 *1338:A 0
43 *280:10 *1338:A 7.63204e-05
44 *285:12 *1338:A 0.000141599
*RES
1 *1259:Q *298:8 4.395 
2 *298:8 *1066:A1 15.465 
3 *298:8 *298:23 3.42 
4 *298:23 *1068:A0 8.88 
5 *298:23 *298:40 30.325 
6 *298:40 *1338:A 27.675 
*END

*D_NET *299 0.0029549
*CONN
*I *1339:A I *D sky130_fd_sc_hd__buf_2
*I *1066:A0 I *D sky130_fd_sc_hd__mux2_1
*I *1064:A1 I *D sky130_fd_sc_hd__mux2_1
*I *1260:Q O *D sky130_fd_sc_hd__dfrtp_1
*CAP
1 *1339:A 6.56858e-05
2 *1066:A0 0
3 *1064:A1 0.000341626
4 *1260:Q 0
5 *299:12 0.000899428
6 *299:4 0.000623488
7 *1064:A1 *1064:S 0.000353831
8 *299:12 *313:41 6.13951e-05
9 odata[2] *1064:A1 3.23663e-05
10 *1067:A *1064:A1 9.54469e-05
11 *1260:D *1064:A1 2.4997e-05
12 *1260:D *299:12 0.000109649
13 *1261:CLK *1064:A1 4.82919e-05
14 *1261:D *1064:A1 0.000241483
15 *1337:A *1064:A1 5.72091e-05
*RES
1 *1260:Q *299:4 1.6 
2 *299:4 *299:12 10.66 
3 *299:12 *1064:A1 13.685 
4 *299:12 *1066:A0 1.6 
5 *299:4 *1339:A 2.665 
*END

*D_NET *300 0.00838602
*CONN
*I *1064:A0 I *D sky130_fd_sc_hd__mux2_1
*I *1062:A1 I *D sky130_fd_sc_hd__mux2_1
*I *1340:A I *D sky130_fd_sc_hd__clkbuf_4
*I *1261:Q O *D sky130_fd_sc_hd__dfrtp_1
*CAP
1 *1064:A0 0.000361428
2 *1062:A1 0
3 *1340:A 0.000459177
4 *1261:Q 0.00011914
5 *300:16 0.00249023
6 *300:12 0.00251162
7 *1340:A *1062:A0 3.00381e-05
8 *300:16 *1062:A0 0.000129465
9 *300:16 *1305:A 4.82863e-05
10 *300:16 *1344:A 0.000351088
11 *300:16 *1349:A 7.35813e-05
12 oaddr[5] *1340:A 0.000164874
13 odata[2] *1064:A0 0.0001249
14 *1006:A *300:16 4.99619e-05
15 *1063:A *1340:A 3.00381e-05
16 *1065:A *1064:A0 0.000137029
17 *1065:A *300:12 2.93678e-05
18 *1210:B *300:16 0.000733019
19 *1216:B *300:16 2.16833e-05
20 *1256:RESET_B *300:16 0.00012657
21 *1261:D *1064:A0 2.59934e-06
22 *1262:RESET_B *300:16 0.000200615
23 *1332:A *1340:A 0.00012657
24 *250:36 *300:16 6.47326e-05
*RES
1 *1261:Q *300:12 7.52 
2 *300:12 *300:16 34.965 
3 *300:16 *1340:A 10.015 
4 *300:16 *1062:A1 1.6 
5 *300:12 *1064:A0 6.625 
*END

*D_NET *301 0.00190517
*CONN
*I *1341:A I *D sky130_fd_sc_hd__clkbuf_4
*I *1060:A1 I *D sky130_fd_sc_hd__mux2_1
*I *1305:A I *D sky130_fd_sc_hd__dlygate4sd3_1
*I *1262:Q O *D sky130_fd_sc_hd__dfrtp_1
*CAP
1 *1341:A 0
2 *1060:A1 8.52412e-05
3 *1305:A 9.2374e-05
4 *1262:Q 0
5 *301:23 0.000266625
6 *301:6 0.000273758
7 *1060:A1 *1060:A0 1.61831e-05
8 odata[6] *1060:A1 0.000162311
9 *1262:RESET_B *1305:A 1.34361e-05
10 *1262:RESET_B *301:23 4.39656e-05
11 *1335:A *1305:A 0.000116165
12 *133:34 *301:23 8.53113e-06
13 *165:28 *1060:A1 0.000238137
14 *165:28 *301:23 0.000274952
15 *248:20 *1060:A1 2.16833e-05
16 *248:20 *301:23 2.05056e-05
17 *249:33 *1060:A1 5.83121e-06
18 *249:33 *301:23 0.000173916
19 *250:36 *301:23 4.32695e-05
20 *300:16 *1305:A 4.82863e-05
*RES
1 *1262:Q *301:6 3.6 
2 *301:6 *1305:A 5.685 
3 *301:6 *301:23 7.265 
4 *301:23 *1060:A1 4.465 
5 *301:23 *1341:A 1.6 
*END

*D_NET *302 0.00229756
*CONN
*I *1342:A I *D sky130_fd_sc_hd__clkbuf_4
*I *1300:A I *D sky130_fd_sc_hd__dlygate4sd3_1
*I *1263:Q O *D sky130_fd_sc_hd__dfrtp_1
*CAP
1 *1342:A 0.000781728
2 *1300:A 0.000134765
3 *1263:Q 0
4 *302:6 0.000916492
5 *1255:D *1342:A 4.97815e-05
6 *1263:RESET_B *1300:A 0.000275553
7 *248:20 *1300:A 5.33085e-05
8 *248:20 *1342:A 8.59365e-05
9 *249:33 *1300:A 0
10 *249:33 *1342:A 0
*RES
1 *1263:Q *302:6 3.6 
2 *302:6 *1300:A 6.735 
3 *302:6 *1342:A 14.835 
*END

*D_NET *303 0.00727099
*CONN
*I *1343:A I *D sky130_fd_sc_hd__buf_2
*I *1307:A I *D sky130_fd_sc_hd__dlygate4sd3_1
*I *1237:Q O *D sky130_fd_sc_hd__dfrtp_1
*CAP
1 *1343:A 0.00158758
2 *1307:A 0.000175004
3 *1237:Q 0.000138844
4 *303:6 0.00190143
5 *1343:A *1020:A0 0.000204034
6 *1343:A *1024:A0 0
7 *1343:A *1025:A1 0.000253949
8 *1343:A *1028:A0 0.00118864
9 *303:6 *1020:A0 0.00011577
10 *1019:B *1343:A 8.307e-05
11 *1020:A1 *1343:A 0.000223484
12 *1020:S *1343:A 0.000217091
13 *1025:A0 *1343:A 8.26614e-05
14 *1028:A1 *1343:A 9.5433e-05
15 *1233:A *1307:A 0
16 *1277:RESET_B *1343:A 0.000100301
17 *1338:A *1343:A 2.92496e-05
18 *134:60 *1307:A 0
19 *134:76 *1343:A 8.8266e-05
20 *136:42 *1343:A 0
21 *136:55 *1343:A 6.45317e-05
22 *136:74 *1343:A 0.000193538
23 *138:20 *1343:A 0
24 *138:26 *1343:A 0.000338233
25 *279:10 *1343:A 0.000143266
26 *298:40 *1343:A 4.66108e-05
*RES
1 *1237:Q *303:6 3.43 
2 *303:6 *1307:A 8.36 
3 *303:6 *1343:A 44.19 
*END

*D_NET *304 0.00233417
*CONN
*I *1041:B2 I *D sky130_fd_sc_hd__a22o_1
*I *1318:X O *D sky130_fd_sc_hd__clkbuf_1
*CAP
1 *1041:B2 0.000696684
2 *1318:X 0.000696684
3 *1041:B2 *1036:A0 2.67022e-05
4 *1041:B2 *1037:A1 0
5 *1011:A0 *1041:B2 0.00088623
6 *1032:S *1041:B2 0
7 *1036:S *1041:B2 0
8 *1037:S *1041:B2 0
9 *1294:A *1041:B2 0
10 *1319:A *1041:B2 2.78732e-05
11 *136:103 *1041:B2 0
12 *136:120 *1041:B2 0
13 *138:63 *1041:B2 0
*RES
1 *1318:X *1041:B2 19.935 
*END

*D_NET *305 0.00819603
*CONN
*I *1180:B I *D sky130_fd_sc_hd__or2_1
*I *1153:B1 I *D sky130_fd_sc_hd__o31a_1
*I *1344:A I *D sky130_fd_sc_hd__clkbuf_4
*I *1238:Q O *D sky130_fd_sc_hd__dfrtp_1
*CAP
1 *1180:B 0.000230262
2 *1153:B1 0
3 *1344:A 0.00178089
4 *1238:Q 0
5 *305:16 0.00227005
6 *305:4 0.000719421
7 *1180:B *1167:A1 0
8 *1180:B *354:59 0.000291379
9 *1344:A *1154:A1 0
10 *305:16 *1154:A1 3.57924e-05
11 *305:16 *1157:A1 0
12 *305:16 *354:59 0
13 *305:16 *359:91 0.000159964
14 *1006:A *1344:A 6.31728e-05
15 *1052:A1 *305:16 1.31519e-05
16 *1097:A *1344:A 0
17 *1153:A1 *1344:A 0.000155234
18 *1153:A1 *305:16 8.40269e-05
19 *1153:A2 *1344:A 2.10676e-05
20 *1153:A2 *305:16 4.66108e-05
21 *1153:A3 *305:16 4.66108e-05
22 *1154:B1 *305:16 0.000117825
23 *1238:RESET_B *305:16 4.9968e-05
24 *1250:D *1344:A 0.000122465
25 *1251:CLK *1344:A 0
26 *1264:RESET_B *1344:A 6.65066e-05
27 *1266:CLK *1344:A 0.000875017
28 *1266:D *305:16 0
29 *1314:A *1344:A 0
30 *133:14 *1344:A 0
31 *156:93 *1344:A 0
32 *156:95 *1344:A 0
33 *156:108 *1344:A 0
34 *187:10 *305:16 7.46855e-05
35 *187:14 *1344:A 0
36 *246:24 *1180:B 0
37 *250:91 *1344:A 0.00015572
38 *261:42 *305:16 0
39 *266:12 *1344:A 0
40 *268:16 *1180:B 0.000150568
41 *268:16 *305:16 0.000121023
42 *270:24 *1344:A 0.000102133
43 *270:32 *1344:A 0
44 *293:118 *305:16 9.13969e-05
45 *300:16 *1344:A 0.000351088
*RES
1 *1238:Q *305:4 1.6 
2 *305:4 *305:16 14.41 
3 *305:16 *1344:A 41.09 
4 *305:16 *1153:B1 1.6 
5 *305:4 *1180:B 10.505 
*END

*D_NET *306 0.000880649
*CONN
*I *1345:A I *D sky130_fd_sc_hd__clkbuf_4
*I *1181:X O *D sky130_fd_sc_hd__clkbuf_1
*CAP
1 *1345:A 0.000346621
2 *1181:X 0.000346621
3 *1345:A *1013:A1 3.72916e-05
4 *1326:A *1345:A 0.000113247
5 *1338:A *1345:A 3.68682e-05
*RES
1 *1181:X *1345:A 11.88 
*END

*D_NET *307 0.00302524
*CONN
*I *1346:A I *D sky130_fd_sc_hd__clkbuf_4
*I *1290:A I *D sky130_fd_sc_hd__dlygate4sd3_1
*I *1239:Q O *D sky130_fd_sc_hd__dfrtp_1
*CAP
1 *1346:A 0.000819506
2 *1290:A 2.08101e-05
3 *1239:Q 0.000231287
4 *307:8 0.0010716
5 *1346:A *1016:A0 0.000125251
6 *1346:A *1017:A1 7.23602e-05
7 *307:8 *1152:B1 1.1392e-05
8 *1017:A0 *1346:A 8.8266e-05
9 *1331:A *1346:A 7.42457e-05
10 *1338:A *1346:A 0.000225541
11 *136:97 *1346:A 0.000284976
*RES
1 *1239:Q *307:8 4.825 
2 *307:8 *1290:A 1.96 
3 *307:8 *1346:A 21.995 
*END

*D_NET *308 0.00272067
*CONN
*I *1347:A I *D sky130_fd_sc_hd__clkbuf_4
*I *1182:B I *D sky130_fd_sc_hd__or2_1
*I *1149:A1 I *D sky130_fd_sc_hd__mux2_1
*I *1240:Q O *D sky130_fd_sc_hd__dfrtp_1
*CAP
1 *1347:A 0.000200043
2 *1182:B 0
3 *1149:A1 9.68551e-05
4 *1240:Q 0.000300395
5 *308:12 0.000181416
6 *308:8 0.000584999
7 *1149:A1 *1149:A0 0.000198939
8 *1347:A *1032:A0 0.000579797
9 *1347:A *1350:A 0.000458504
10 *308:12 *1350:A 8.78735e-05
11 *1149:S *308:12 1.94892e-05
12 *1240:CLK *308:12 0
13 *1240:RESET_B *308:8 1.23607e-05
*RES
1 *1240:Q *308:8 6.81 
2 *308:8 *308:12 3.89 
3 *308:12 *1149:A1 3.43 
4 *308:12 *1182:B 1.6 
5 *308:8 *1347:A 11.28 
*END

*D_NET *309 0.000238847
*CONN
*I *1348:A I *D sky130_fd_sc_hd__clkbuf_4
*I *1183:X O *D sky130_fd_sc_hd__clkbuf_1
*CAP
1 *1348:A 0.000119424
2 *1183:X 0.000119424
3 *1348:A *1350:A 0
*RES
1 *1183:X *1348:A 8.775 
*END

*D_NET *310 0.00614595
*CONN
*I *1293:A I *D sky130_fd_sc_hd__dlygate4sd3_1
*I *1156:A2 I *D sky130_fd_sc_hd__o211a_1
*I *1349:A I *D sky130_fd_sc_hd__clkbuf_4
*I *1236:Q O *D sky130_fd_sc_hd__dfrtp_1
*CAP
1 *1293:A 4.88071e-05
2 *1156:A2 3.13807e-05
3 *1349:A 0.00134732
4 *1236:Q 0.000197549
5 *310:12 0.00166557
6 *310:10 0.000533235
7 *1156:A2 *1156:A1 5.4155e-06
8 *1293:A *359:91 6.27529e-05
9 *1349:A *354:10 4.47819e-05
10 *310:10 *354:59 0.000129728
11 *310:12 *1156:A1 6.28765e-05
12 *310:12 *354:59 0.000360898
13 *1088:S *1349:A 0
14 *1088:S *310:12 0
15 *1089:A *310:12 0
16 *1091:A2 *1349:A 4.58101e-05
17 *1157:A2 *310:12 3.68682e-05
18 *1157:B1 *310:12 5.64143e-05
19 *1250:RESET_B *1349:A 0
20 *1251:RESET_B *1349:A 7.1635e-05
21 *1253:CLK *1349:A 0
22 *136:10 *1349:A 8.75969e-05
23 *136:29 *1349:A 9.35337e-05
24 *156:14 *1349:A 0.000438002
25 *159:71 *1156:A2 9.53428e-06
26 *159:77 *1349:A 0.000251595
27 *159:77 *310:12 4.61595e-05
28 *187:14 *1349:A 0
29 *193:33 *1293:A 0.000123225
30 *193:50 *310:10 5.21627e-05
31 *193:50 *310:12 7.21296e-06
32 *248:41 *1349:A 2.08372e-05
33 *248:65 *1349:A 0.00016506
34 *266:53 *1349:A 0
35 *268:16 *310:10 7.64058e-05
36 *271:10 *1349:A 0
37 *271:47 *1349:A 0
38 *300:16 *1349:A 7.35813e-05
*RES
1 *1236:Q *310:10 7.065 
2 *310:10 *310:12 6.735 
3 *310:12 *1349:A 29.37 
4 *310:12 *1156:A2 4.215 
5 *310:10 *1293:A 5.085 
*END

*D_NET *311 0.00650764
*CONN
*I *1350:A I *D sky130_fd_sc_hd__buf_6
*I *1265:Q O *D sky130_fd_sc_hd__dfstp_1
*CAP
1 *1350:A 0.00167437
2 *1265:Q 0.00167437
3 *1350:A *1032:A0 0.000941564
4 *1011:A0 *1350:A 0.00153424
5 *1149:S *1350:A 0
6 *1190:B *1350:A 0
7 *1240:RESET_B *1350:A 0
8 *1315:A *1350:A 4.82919e-05
9 *1320:A *1350:A 4.82919e-05
10 *1347:A *1350:A 0.000458504
11 *1348:A *1350:A 0
12 *256:6 *1350:A 4.01424e-05
13 *308:12 *1350:A 8.78735e-05
*RES
1 *1265:Q *1350:A 45.3375 
*END

*D_NET *312 0.00160366
*CONN
*I *1351:A I *D sky130_fd_sc_hd__buf_2
*I *1313:A I *D sky130_fd_sc_hd__dlygate4sd3_1
*I *1267:Q O *D sky130_fd_sc_hd__dfrtp_1
*CAP
1 *1351:A 0.000294883
2 *1313:A 0
3 *1267:Q 5.9303e-05
4 *312:10 0.000354186
5 *1351:A *1277:CLK 1.58555e-05
6 *312:10 *1277:CLK 3.79351e-05
7 *1025:S *1351:A 3.95698e-05
8 *1232:A *1351:A 0.000122801
9 *1276:RESET_B *312:10 0.000140912
10 *138:32 *1351:A 0.000538218
*RES
1 *1267:Q *312:10 7.235 
2 *312:10 *1313:A 1.6 
3 *312:10 *1351:A 8.38 
*END

*D_NET *313 0.00995557
*CONN
*I *1072:S I *D sky130_fd_sc_hd__mux2_1
*I *1066:S I *D sky130_fd_sc_hd__mux2_1
*I *1064:S I *D sky130_fd_sc_hd__mux2_1
*I *1068:S I *D sky130_fd_sc_hd__mux2_1
*I *1070:S I *D sky130_fd_sc_hd__mux2_1
*I *1075:B1 I *D sky130_fd_sc_hd__a32o_1
*I *1325:X O *D sky130_fd_sc_hd__buf_2
*CAP
1 *1072:S 0.000194623
2 *1066:S 0
3 *1064:S 0.000367259
4 *1068:S 0
5 *1070:S 0
6 *1075:B1 3.51463e-05
7 *1325:X 0.000107856
8 *313:41 0.0010793
9 *313:30 0.000795202
10 *313:23 0.000134952
11 *313:19 0.0013902
12 *313:6 0.00128679
13 *1064:S *1024:A0 0
14 *313:41 *1024:A0 0
15 odata[2] *1064:S 5.30673e-05
16 *1009:A *313:19 4.66108e-05
17 *1047:A *313:19 0.000101584
18 *1055:A *313:19 4.66826e-05
19 *1064:A1 *1064:S 0.000353831
20 *1067:A *1064:S 4.82919e-05
21 *1068:A0 *313:41 4.77719e-05
22 *1068:A1 *313:30 0.000200099
23 *1068:A1 *313:41 7.50252e-05
24 *1069:A *313:41 0
25 *1070:A1 *1072:S 9.49289e-05
26 *1070:A1 *313:23 5.51245e-05
27 *1072:A0 *1072:S 6.38036e-05
28 *1072:A1 *1072:S 3.00381e-05
29 *1074:A2 *313:6 0.000461935
30 *1074:A2 *313:19 3.66286e-05
31 *1074:D1 *313:19 0.00026538
32 *1075:A2 *1075:B1 2.24829e-05
33 *1075:A2 *313:6 3.23663e-05
34 *1075:A2 *313:19 0.000423132
35 *1075:A3 *1075:B1 4.00541e-06
36 *1075:A3 *313:6 1.33293e-05
37 *1081:B *313:19 0.000158543
38 *1214:A *313:41 0
39 *1257:CLK *1072:S 0.000112971
40 *1257:CLK *313:23 7.89689e-05
41 *1259:D *313:41 0
42 *1260:D *1064:S 5.13692e-05
43 *1260:D *313:41 8.74345e-06
44 *1260:RESET_B *313:41 0
45 *1261:CLK *313:41 0
46 *1337:A *313:41 0
47 *162:18 *313:19 0.000109506
48 *174:6 *313:6 7.3151e-05
49 *174:8 *313:6 0.000232999
50 *250:103 *1072:S 0
51 *250:133 *1072:S 6.42765e-05
52 *250:146 *313:41 0
53 *251:80 *1072:S 0
54 *266:124 *313:41 0
55 *269:16 *313:19 4.82863e-05
56 *270:12 *313:19 0.000234674
57 *270:14 *313:19 4.82919e-05
58 *270:24 *313:19 0.000758326
59 *273:38 *313:6 4.66108e-05
60 *297:21 *313:41 0
61 *299:12 *313:41 6.13951e-05
*RES
1 *1325:X *313:6 6.19 
2 *313:6 *1075:B1 2.4175 
3 *313:6 *313:19 26.255 
4 *313:19 *313:23 3.635 
5 *313:23 *1070:S 1.6 
6 *313:23 *313:30 1.83 
7 *313:30 *1068:S 1.6 
8 *313:30 *313:41 14.045 
9 *313:41 *1064:S 11.115 
10 *313:41 *1066:S 3.6 
11 *313:19 *1072:S 8.94 
*END

*D_NET *314 0.000231434
*CONN
*I *1265:CLK I *D sky130_fd_sc_hd__dfstp_1
*I *1220:Y O *D sky130_fd_sc_hd__inv_2
*CAP
1 *1265:CLK 7.87035e-05
2 *1220:Y 7.87035e-05
3 *1167:B1 *1265:CLK 0
4 *264:12 *1265:CLK 7.4027e-05
*RES
1 *1220:Y *1265:CLK 8.685 
*END

*D_NET *315 0.00034677
*CONN
*I *1036:A0 I *D sky130_fd_sc_hd__mux2_1
*I *1319:X O *D sky130_fd_sc_hd__clkbuf_1
*CAP
1 *1036:A0 0.000135459
2 *1319:X 0.000135459
3 *1036:A1 *1036:A0 5.062e-06
4 *1036:S *1036:A0 1.7386e-05
5 *1041:B2 *1036:A0 2.67022e-05
6 *136:103 *1036:A0 2.67022e-05
*RES
1 *1319:X *1036:A0 9.21 
*END

*D_NET *316 0.000159879
*CONN
*I *1267:CLK I *D sky130_fd_sc_hd__dfrtp_1
*I *1222:Y O *D sky130_fd_sc_hd__inv_2
*CAP
1 *1267:CLK 6.29487e-05
2 *1222:Y 6.29487e-05
3 *1222:A *1267:CLK 3.3982e-05
*RES
1 *1222:Y *1267:CLK 4.34 
*END

*D_NET *317 0.000402416
*CONN
*I *1273:CLK I *D sky130_fd_sc_hd__dfrtp_1
*I *1228:Y O *D sky130_fd_sc_hd__inv_2
*CAP
1 *1273:CLK 0.00011432
2 *1228:Y 0.00011432
3 *1036:A1 *1273:CLK 2.20732e-05
4 *1036:S *1273:CLK 3.64998e-06
5 *1228:A *1273:CLK 7.4027e-05
6 *136:103 *1273:CLK 7.4027e-05
*RES
1 *1228:Y *1273:CLK 9.585 
*END

*D_NET *318 0.000120851
*CONN
*I *1274:CLK I *D sky130_fd_sc_hd__dfrtp_1
*I *1229:Y O *D sky130_fd_sc_hd__inv_2
*CAP
1 *1274:CLK 6.04255e-05
2 *1229:Y 6.04255e-05
*RES
1 *1229:Y *1274:CLK 3.995 
*END

*D_NET *319 0.000424497
*CONN
*I *1275:CLK I *D sky130_fd_sc_hd__dfrtp_1
*I *1230:Y O *D sky130_fd_sc_hd__inv_2
*CAP
1 *1275:CLK 0.000154421
2 *1230:Y 0.000154421
3 *1167:B1 *1275:CLK 0
4 *1275:D *1275:CLK 7.72855e-05
5 *134:35 *1275:CLK 3.83704e-05
*RES
1 *1230:Y *1275:CLK 10.035 
*END

*D_NET *320 0.000310741
*CONN
*I *1276:CLK I *D sky130_fd_sc_hd__dfrtp_1
*I *1231:Y O *D sky130_fd_sc_hd__inv_2
*CAP
1 *1276:CLK 0.000155371
2 *1231:Y 0.000155371
3 *1276:CLK *1045:A2 0
4 *1276:RESET_B *1276:CLK 0
*RES
1 *1231:Y *1276:CLK 9.585 
*END

*D_NET *321 0.000355496
*CONN
*I *1277:CLK I *D sky130_fd_sc_hd__dfrtp_1
*I *1232:Y O *D sky130_fd_sc_hd__inv_2
*CAP
1 *1277:CLK 0.000126338
2 *1232:Y 0.000126338
3 *1232:A *1277:CLK 2.86975e-05
4 *1276:RESET_B *1277:CLK 2.03321e-05
5 *1351:A *1277:CLK 1.58555e-05
6 *312:10 *1277:CLK 3.79351e-05
*RES
1 *1232:Y *1277:CLK 9.375 
*END

*D_NET *322 0.00012883
*CONN
*I *1278:CLK I *D sky130_fd_sc_hd__dfrtp_1
*I *1233:Y O *D sky130_fd_sc_hd__inv_2
*CAP
1 *1278:CLK 4.9231e-05
2 *1233:Y 4.9231e-05
3 *1172:A *1278:CLK 3.03684e-05
*RES
1 *1233:Y *1278:CLK 3.995 
*END

*D_NET *323 0.000321867
*CONN
*I *1279:CLK I *D sky130_fd_sc_hd__dfrtp_1
*I *1234:Y O *D sky130_fd_sc_hd__inv_2
*CAP
1 *1279:CLK 0.000140666
2 *1234:Y 0.000140666
3 *1176:A *1279:CLK 4.05358e-05
4 *1283:A *1279:CLK 0
5 *134:48 *1279:CLK 0
*RES
1 *1234:Y *1279:CLK 9.585 
*END

*D_NET *324 0.000125353
*CONN
*I *1280:CLK I *D sky130_fd_sc_hd__dfrtp_1
*I *1235:Y O *D sky130_fd_sc_hd__inv_2
*CAP
1 *1280:CLK 3.77354e-05
2 *1235:Y 3.77354e-05
3 *1039:A *1280:CLK 4.98818e-05
*RES
1 *1235:Y *1280:CLK 3.995 
*END

*D_NET *325 0.0016548
*CONN
*I *1152:B1 I *D sky130_fd_sc_hd__a31o_1
*I *1290:X O *D sky130_fd_sc_hd__dlygate4sd3_1
*CAP
1 *1152:B1 0.000480392
2 *1290:X 0.000480392
3 *1152:B1 *1151:A 0.000116294
4 *1152:A1 *1152:B1 0.000423999
5 *1152:A3 *1152:B1 4.82863e-05
6 *1283:A *1152:B1 7.23533e-05
7 *1301:A *1152:B1 2.16917e-05
8 *138:47 *1152:B1 0
9 *307:8 *1152:B1 1.1392e-05
*RES
1 *1290:X *1152:B1 16.485 
*END

*D_NET *326 0.0075529
*CONN
*I *1032:A0 I *D sky130_fd_sc_hd__mux2_1
*I *1320:X O *D sky130_fd_sc_hd__clkbuf_1
*CAP
1 *1032:A0 0.00273223
2 *1320:X 0.00273223
3 *1011:A0 *1032:A0 0.000367507
4 *1032:S *1032:A0 8.64421e-05
5 *1294:A *1032:A0 0
6 *1315:A *1032:A0 4.99619e-05
7 *1318:A *1032:A0 3.00381e-05
8 *1347:A *1032:A0 0.000579797
9 *1350:A *1032:A0 0.000941564
10 *138:63 *1032:A0 0
11 *276:8 *1032:A0 3.31413e-05
*RES
1 *1320:X *1032:A0 47.37 
*END

*D_NET *327 0.000513035
*CONN
*I *1239:D I *D sky130_fd_sc_hd__dfrtp_1
*I *1301:X O *D sky130_fd_sc_hd__dlygate4sd3_1
*CAP
1 *1239:D 0.000230085
2 *1301:X 0.000230085
3 *1189:A *1239:D 4.70343e-05
4 *1239:CLK *1239:D 5.83121e-06
5 *134:60 *1239:D 0
*RES
1 *1301:X *1239:D 10.755 
*END

*D_NET *328 0.00107177
*CONN
*I *1155:B1 I *D sky130_fd_sc_hd__a21o_1
*I *1307:X O *D sky130_fd_sc_hd__dlygate4sd3_1
*CAP
1 *1155:B1 0.000310201
2 *1307:X 0.000310201
3 *1155:B1 *1155:A1 1.85674e-05
4 *1152:A3 *1155:B1 4.82863e-05
5 *1172:A *1155:B1 7.06841e-05
6 *1308:A *1155:B1 0.00027299
7 *268:56 *1155:B1 4.0843e-05
*RES
1 *1307:X *1155:B1 8.84 
*END

*D_NET *329 0.000379429
*CONN
*I *1237:D I *D sky130_fd_sc_hd__dfrtp_1
*I *1308:X O *D sky130_fd_sc_hd__dlygate4sd3_1
*CAP
1 *1237:D 9.10845e-05
2 *1308:X 9.10845e-05
3 *1237:D *1020:A0 4.92062e-05
4 *1189:B *1237:D 7.4027e-05
5 *1284:A *1237:D 7.4027e-05
*RES
1 *1308:X *1237:D 9.225 
*END

*D_NET *330 0.000782074
*CONN
*I *1041:A1 I *D sky130_fd_sc_hd__a22o_1
*I *1309:X O *D sky130_fd_sc_hd__dlygate4sd3_1
*CAP
1 *1041:A1 0.000197629
2 *1309:X 0.000197629
3 *1032:S *1041:A1 0.000124895
4 *1040:B *1041:A1 4.82919e-05
5 *1041:B1 *1041:A1 4.66108e-05
6 *138:53 *1041:A1 9.1741e-05
7 *138:55 *1041:A1 5.41685e-05
8 *138:59 *1041:A1 2.11084e-05
*RES
1 *1309:X *1041:A1 7.445 
*END

*D_NET *331 0.000524774
*CONN
*I *1090:B1 I *D sky130_fd_sc_hd__o21ai_1
*I *1310:X O *D sky130_fd_sc_hd__dlygate4sd3_1
*CAP
1 *1090:B1 0.000159222
2 *1310:X 0.000159222
3 *1091:B1 *1090:B1 4.9253e-06
4 *136:42 *1090:B1 0.000201404
*RES
1 *1310:X *1090:B1 6.41 
*END

*D_NET *332 0.000851587
*CONN
*I *1159:B1 I *D sky130_fd_sc_hd__a41o_1
*I *1311:X O *D sky130_fd_sc_hd__dlygate4sd3_1
*CAP
1 *1159:B1 0.000163031
2 *1311:X 0.000163031
3 *1159:B1 *1159:A1 4.77045e-05
4 *1159:A3 *1159:B1 4.42299e-05
5 *1159:A4 *1159:B1 0.000122801
6 *1172:A *1159:B1 0.000310789
7 *1312:A *1159:B1 0
*RES
1 *1311:X *1159:B1 11.445 
*END

*D_NET *333 0.000657726
*CONN
*I *1269:D I *D sky130_fd_sc_hd__dfrtp_1
*I *1312:X O *D sky130_fd_sc_hd__dlygate4sd3_1
*CAP
1 *1269:D 0.000250429
2 *1312:X 0.000250429
3 *1269:D *355:48 3.86607e-05
4 *1149:S *1269:D 0
5 *1174:A *1269:D 0.000118207
*RES
1 *1312:X *1269:D 10.95 
*END

*D_NET *334 0.000712686
*CONN
*I *1045:A1 I *D sky130_fd_sc_hd__o211a_1
*I *1313:X O *D sky130_fd_sc_hd__dlygate4sd3_1
*CAP
1 *1045:A1 0.000257138
2 *1313:X 0.000257138
3 *1231:A *1045:A1 0.000122313
4 *1267:D *1045:A1 7.60965e-05
5 *1276:RESET_B *1045:A1 0
*RES
1 *1313:X *1045:A1 11.91 
*END

*D_NET *335 0.00141305
*CONN
*I *1158:B1 I *D sky130_fd_sc_hd__a31o_1
*I *1291:X O *D sky130_fd_sc_hd__dlygate4sd3_1
*CAP
1 *1158:B1 0.000193371
2 *1291:X 0.000193371
3 *1158:B1 *1020:A0 0.000125262
4 *1158:B1 *1056:A 4.82863e-05
5 *1158:B1 *1272:D 8.23457e-05
6 *1158:B1 *352:20 4.56695e-05
7 *1158:B1 *354:80 0.000581859
8 *1158:A3 *1158:B1 4.06868e-05
9 *1292:A *1158:B1 0.0001022
*RES
1 *1291:X *1158:B1 9.635 
*END

*D_NET *336 0.000921814
*CONN
*I *1272:D I *D sky130_fd_sc_hd__dfrtp_1
*I *1292:X O *D sky130_fd_sc_hd__dlygate4sd3_1
*CAP
1 *1272:D 0.000163088
2 *1292:X 0.000163088
3 *1158:B1 *1272:D 8.23457e-05
4 *1272:CLK *1272:D 6.58339e-05
5 *1292:A *1272:D 8.23457e-05
6 *131:127 *1272:D 0.00011379
7 *132:128 *1272:D 4.92284e-05
8 *133:101 *1272:D 0.000202095
*RES
1 *1292:X *1272:D 11.535 
*END

*D_NET *337 0.00455731
*CONN
*I *1028:A0 I *D sky130_fd_sc_hd__mux2_1
*I *1321:X O *D sky130_fd_sc_hd__clkbuf_1
*CAP
1 *1028:A0 0.000720868
2 *1321:X 0.000720868
3 *1028:A0 *1024:A0 0
4 *1066:A1 *1028:A0 0.000357514
5 *1214:B *1028:A0 0.000257246
6 *1336:A *1028:A0 0.00054761
7 *1343:A *1028:A0 0.00118864
8 *136:55 *1028:A0 0.000298449
9 *298:23 *1028:A0 0.000162184
10 *298:40 *1028:A0 0.000303937
*RES
1 *1321:X *1028:A0 33 
*END

*D_NET *338 0.000470195
*CONN
*I *1157:A1 I *D sky130_fd_sc_hd__a22o_1
*I *1293:X O *D sky130_fd_sc_hd__dlygate4sd3_1
*CAP
1 *1157:A1 0.000157118
2 *1293:X 0.000157118
3 *1157:A1 *354:59 7.4027e-05
4 *1157:A2 *1157:A1 1.85674e-05
5 *1157:B1 *1157:A1 2.75229e-05
6 *1157:B2 *1157:A1 4.00541e-06
7 *154:20 *1157:A1 2.8185e-05
8 *154:24 *1157:A1 3.64998e-06
9 *305:16 *1157:A1 0
*RES
1 *1293:X *1157:A1 10.185 
*END

*D_NET *339 0.000413851
*CONN
*I *1037:A1 I *D sky130_fd_sc_hd__mux2_1
*I *1294:X O *D sky130_fd_sc_hd__dlygate4sd3_1
*CAP
1 *1037:A1 0.000182025
2 *1294:X 0.000182025
3 *1037:A0 *1037:A1 4.98015e-05
4 *1041:B2 *1037:A1 0
5 *1294:A *1037:A1 0
*RES
1 *1294:X *1037:A1 9.555 
*END

*D_NET *340 0.00073877
*CONN
*I *1112:A0 I *D sky130_fd_sc_hd__mux2_1
*I *1295:X O *D sky130_fd_sc_hd__dlygate4sd3_1
*CAP
1 *1112:A0 0.000221471
2 *1295:X 0.000221471
3 *1103:B_N *1112:A0 0
4 *1104:B1_N *1112:A0 1.26548e-05
5 *1109:A0 *1112:A0 7.4027e-05
6 *1109:S *1112:A0 8.53113e-06
7 *1112:A1 *1112:A0 0.000200615
8 *1113:A *1112:A0 0
9 *1178:A *1112:A0 0
*RES
1 *1295:X *1112:A0 11.445 
*END

*D_NET *341 0.000452167
*CONN
*I *1029:A1 I *D sky130_fd_sc_hd__mux2_1
*I *1296:X O *D sky130_fd_sc_hd__dlygate4sd3_1
*CAP
1 *1029:A1 0.000128417
2 *1296:X 0.000128417
3 *1029:A0 *1029:A1 0.000122313
4 *1029:S *1029:A1 5.83121e-06
5 *1296:A *1029:A1 0
6 *138:20 *1029:A1 6.71882e-05
*RES
1 *1296:X *1029:A1 9.57 
*END

*D_NET *342 0.00105346
*CONN
*I *1021:A1 I *D sky130_fd_sc_hd__mux2_1
*I *1297:X O *D sky130_fd_sc_hd__dlygate4sd3_1
*CAP
1 *1021:A1 0.000453888
2 *1297:X 0.000453888
3 *1019:A *1021:A1 2.49909e-05
4 *1022:A *1021:A1 7.08554e-05
5 *1174:A *1021:A1 4.6009e-05
6 *1278:D *1021:A1 3.82323e-06
*RES
1 *1297:X *1021:A1 9.2 
*END

*D_NET *343 0.000708409
*CONN
*I *1013:A1 I *D sky130_fd_sc_hd__mux2_1
*I *1298:X O *D sky130_fd_sc_hd__dlygate4sd3_1
*CAP
1 *1013:A1 0.00030054
2 *1298:X 0.00030054
3 *1013:A0 *1013:A1 2.11084e-05
4 *1014:A *1013:A1 4.89295e-05
5 *1345:A *1013:A1 3.72916e-05
*RES
1 *1298:X *1013:A1 7.79 
*END

*D_NET *344 7.40983e-05
*CONN
*I *1052:B2 I *D sky130_fd_sc_hd__a32o_1
*I *1299:X O *D sky130_fd_sc_hd__dlygate4sd3_1
*CAP
1 *1052:B2 2.36259e-05
2 *1299:X 2.36259e-05
3 *187:10 *1052:B2 2.68464e-05
*RES
1 *1299:X *1052:B2 3.65 
*END

*D_NET *345 0.000567704
*CONN
*I *1060:A0 I *D sky130_fd_sc_hd__mux2_1
*I *1300:X O *D sky130_fd_sc_hd__dlygate4sd3_1
*CAP
1 *1060:A0 0.000206467
2 *1300:X 0.000206467
3 odata[6] *1060:A0 1.33293e-05
4 *1060:A1 *1060:A0 1.61831e-05
5 *1302:A *1060:A0 0
6 *248:20 *1060:A0 0.000125257
7 *249:33 *1060:A0 0
*RES
1 *1300:X *1060:A0 10.425 
*END

*D_NET *346 0.000154279
*CONN
*I *1061:A I *D sky130_fd_sc_hd__clkbuf_1
*I *1302:X O *D sky130_fd_sc_hd__dlygate4sd3_1
*CAP
1 *1061:A 6.68944e-05
2 *1302:X 6.68944e-05
3 *1263:D *1061:A 2.04902e-05
*RES
1 *1302:X *1061:A 4.34 
*END

*D_NET *347 0.00057609
*CONN
*I *1025:A1 I *D sky130_fd_sc_hd__mux2_1
*I *1303:X O *D sky130_fd_sc_hd__dlygate4sd3_1
*CAP
1 *1025:A1 7.78976e-05
2 *1303:X 7.78976e-05
3 *1028:A1 *1025:A1 0
4 *1277:RESET_B *1025:A1 0.000166346
5 *1343:A *1025:A1 0.000253949
*RES
1 *1303:X *1025:A1 10.11 
*END

*D_NET *348 0.00407845
*CONN
*I *1024:A0 I *D sky130_fd_sc_hd__mux2_1
*I *1322:X O *D sky130_fd_sc_hd__clkbuf_1
*CAP
1 *1024:A0 0.000981325
2 *1322:X 0.000981325
3 *1028:A0 *1024:A0 0
4 *1064:S *1024:A0 0
5 *1214:A *1024:A0 0.000759531
6 *1214:B *1024:A0 0.00028406
7 *1259:RESET_B *1024:A0 0.000166346
8 *1329:A *1024:A0 0
9 *1343:A *1024:A0 0
10 *136:42 *1024:A0 0.000252282
11 *250:146 *1024:A0 0.000653578
12 *313:41 *1024:A0 0
*RES
1 *1322:X *1024:A0 31.41 
*END

*D_NET *349 0.000450004
*CONN
*I *1017:A1 I *D sky130_fd_sc_hd__mux2_1
*I *1304:X O *D sky130_fd_sc_hd__dlygate4sd3_1
*CAP
1 *1017:A1 0.000179629
2 *1304:X 0.000179629
3 *1017:S *1017:A1 1.83847e-05
4 *1346:A *1017:A1 7.23602e-05
*RES
1 *1304:X *1017:A1 9.555 
*END

*D_NET *350 0.000501451
*CONN
*I *1062:A0 I *D sky130_fd_sc_hd__mux2_1
*I *1305:X O *D sky130_fd_sc_hd__dlygate4sd3_1
*CAP
1 *1062:A0 0.000170974
2 *1305:X 0.000170974
3 *1340:A *1062:A0 3.00381e-05
4 *300:16 *1062:A0 0.000129465
*RES
1 *1305:X *1062:A0 6.41 
*END

*D_NET *351 0.00125862
*CONN
*I *1154:A1 I *D sky130_fd_sc_hd__a31o_1
*I *1306:X O *D sky130_fd_sc_hd__dlygate4sd3_1
*CAP
1 *1154:A1 0.000349142
2 *1306:X 0.000349142
3 *1154:A1 *354:59 0
4 *1153:A2 *1154:A1 0.000171496
5 *1154:A3 *1154:A1 0.000101564
6 *1154:B1 *1154:A1 0.000117825
7 *1344:A *1154:A1 0
8 *187:10 *1154:A1 7.07801e-05
9 *187:14 *1154:A1 6.28765e-05
10 *305:16 *1154:A1 3.57924e-05
*RES
1 *1306:X *1154:A1 14.145 
*END

*D_NET *352 0.0102099
*CONN
*I *1020:A0 I *D sky130_fd_sc_hd__mux2_1
*I *1323:X O *D sky130_fd_sc_hd__buf_1
*CAP
1 *1020:A0 0.000911091
2 *1323:X 0.0023846
3 *352:20 0.00329569
4 *1020:A0 *354:80 0.00012884
5 *1020:A0 *361:25 7.47457e-05
6 *1021:A0 *1020:A0 3.31103e-05
7 *1127:A1 *352:20 0.00010113
8 *1127:A2 *352:20 2.75229e-05
9 *1127:B1 *352:20 2.96334e-05
10 *1127:B2 *352:20 0.000122337
11 *1128:A1 *352:20 8.51862e-05
12 *1144:A *352:20 2.75145e-05
13 *1158:A3 *352:20 0.000429306
14 *1158:B1 *1020:A0 0.000125262
15 *1158:B1 *352:20 4.56695e-05
16 *1171:A1 *352:20 0.000319228
17 *1171:S *352:20 8.49205e-05
18 *1237:D *1020:A0 4.92062e-05
19 *1245:CLK *352:20 8.40269e-05
20 *1288:A *352:20 4.35931e-05
21 *1292:A *352:20 0.000267846
22 *1343:A *1020:A0 0.000204034
23 *154:96 *352:20 0.000237238
24 *203:18 *352:20 0
25 *227:12 *352:20 4.82919e-05
26 *267:21 *352:20 0.000779032
27 *267:23 *352:20 0.000155056
28 *303:6 *1020:A0 0.00011577
*RES
1 *1323:X *352:20 45.005 
2 *352:20 *1020:A0 18.28 
*END

*D_NET *353 0.000469137
*CONN
*I *1016:A0 I *D sky130_fd_sc_hd__mux2_1
*I *1324:X O *D sky130_fd_sc_hd__clkbuf_1
*CAP
1 *1016:A0 0.000151927
2 *1324:X 0.000151927
3 *1324:A *1016:A0 2.67022e-05
4 *1346:A *1016:A0 0.000125251
5 *136:97 *1016:A0 1.33293e-05
*RES
1 *1324:X *1016:A0 9.555 
*END

*D_NET *354 0.0114936
*CONN
*I *1158:A1 I *D sky130_fd_sc_hd__a31o_1
*I *1056:A I *D sky130_fd_sc_hd__inv_2
*I *1180:A I *D sky130_fd_sc_hd__or2_1
*I *1051:A1 I *D sky130_fd_sc_hd__a211o_1
*I *1160:A2 I *D sky130_fd_sc_hd__o32a_1
*I *1306:A I *D sky130_fd_sc_hd__dlygate4sd3_1
*I *1264:Q O *D sky130_fd_sc_hd__dfrtp_4
*CAP
1 *1158:A1 0
2 *1056:A 5.0613e-05
3 *1180:A 1.39988e-05
4 *1051:A1 4.02004e-05
5 *1160:A2 0.000763591
6 *1306:A 3.76639e-05
7 *1264:Q 0.000288833
8 *354:80 0.000787006
9 *354:59 0.00138684
10 *354:25 0.00133297
11 *354:21 0.00123469
12 *354:10 0.000395564
13 *1160:A2 *1148:A 2.49909e-05
14 *1160:A2 *1160:A1 0.000566023
15 *1160:A2 *1299:A 4.47819e-05
16 *1160:A2 *355:10 9.14049e-05
17 *1180:A *361:12 1.4399e-05
18 *354:80 *1167:A1 0
19 *354:80 *361:12 7.06865e-05
20 *1020:A0 *354:80 0.00012884
21 *1049:B *354:25 0.000120655
22 *1051:B1 *1051:A1 4.82863e-05
23 *1051:B1 *1160:A2 0.000181869
24 *1051:B1 *354:25 4.66108e-05
25 *1091:A2 *354:10 2.75145e-05
26 *1153:A1 *354:25 2.04748e-05
27 *1154:A1 *354:59 0
28 *1154:A3 *354:25 5.062e-06
29 *1156:C1 *354:25 0.00013686
30 *1157:A1 *354:59 7.4027e-05
31 *1158:A3 *1056:A 0.000161101
32 *1158:B1 *1056:A 4.82863e-05
33 *1158:B1 *354:80 0.000581859
34 *1159:A2 *354:80 0
35 *1160:A3 *1160:A2 3.49436e-05
36 *1160:B2 *1160:A2 4.82863e-05
37 *1164:A2 *1160:A2 1.19928e-05
38 *1164:B1 *1160:A2 0
39 *1165:A1_N *1160:A2 0
40 *1180:B *354:59 0.000291379
41 *1266:RESET_B *1160:A2 0.000383684
42 *1282:A *1160:A2 9.5606e-05
43 *1349:A *354:10 4.47819e-05
44 *132:20 *1180:A 4.82919e-05
45 *154:77 *1160:A2 2.30776e-05
46 *154:96 *1160:A2 6.47326e-05
47 *155:96 *1051:A1 4.76263e-05
48 *155:125 *354:80 7.30547e-05
49 *156:14 *354:10 0.000332042
50 *156:60 *1051:A1 2.75145e-05
51 *156:60 *354:25 6.07575e-06
52 *159:38 *1160:A2 0.00030655
53 *159:71 *354:25 5.60333e-05
54 *159:77 *354:10 0.00011852
55 *159:77 *354:21 0.000139933
56 *159:77 *354:59 5.4003e-05
57 *187:10 *354:59 0
58 *187:14 *354:10 0
59 *187:14 *354:21 0
60 *187:14 *354:59 0
61 *193:50 *354:59 0
62 *193:50 *354:80 0
63 *261:8 *1051:A1 2.25119e-05
64 *266:61 *354:10 4.66108e-05
65 *305:16 *354:59 0
66 *310:10 *354:59 0.000129728
67 *310:12 *354:59 0.000360898
*RES
1 *1264:Q *354:10 10.275 
2 *354:10 *1306:A 4.05 
3 *354:10 *354:21 1.635 
4 *354:21 *354:25 8.66 
5 *354:25 *1160:A2 21.95 
6 *354:25 *1051:A1 6.665 
7 *354:21 *354:59 13.155 
8 *354:59 *1180:A 4.05 
9 *354:59 *354:80 16.455 
10 *354:80 *1056:A 3.085 
11 *354:80 *1158:A1 1.6 
*END

*D_NET *355 0.00795826
*CONN
*I *1299:A I *D sky130_fd_sc_hd__dlygate4sd3_1
*I *1149:A0 I *D sky130_fd_sc_hd__mux2_1
*I *1182:A I *D sky130_fd_sc_hd__or2_1
*I *1159:A1 I *D sky130_fd_sc_hd__a41o_1
*I *1160:A1 I *D sky130_fd_sc_hd__o32a_1
*I *1266:Q O *D sky130_fd_sc_hd__dfrtp_1
*CAP
1 *1299:A 8.71751e-05
2 *1149:A0 0.000192894
3 *1182:A 0
4 *1159:A1 5.0315e-05
5 *1160:A1 0.000531298
6 *1266:Q 6.36179e-05
7 *355:48 0.00126094
8 *355:25 0.00159737
9 *355:10 0.00106256
10 *355:8 0.00020305
11 *1057:B1 *1299:A 0.000228508
12 *1057:B1 *355:10 4.50017e-05
13 *1057:B1 *355:25 0.000295152
14 *1149:A1 *1149:A0 0.000198939
15 *1159:A2 *355:25 4.74304e-05
16 *1159:A4 *355:25 0.000114807
17 *1159:A4 *355:48 2.32259e-05
18 *1159:B1 *1159:A1 4.77045e-05
19 *1160:A2 *1160:A1 0.000566023
20 *1160:A2 *1299:A 4.47819e-05
21 *1160:A2 *355:10 9.14049e-05
22 *1160:A3 *1160:A1 9.79231e-06
23 *1161:A *1160:A1 1.75875e-05
24 *1183:A *355:48 9.36617e-05
25 *1190:A *355:48 0.000390994
26 *1265:SET_B *355:48 0
27 *1266:RESET_B *1299:A 0.000139231
28 *1269:D *355:48 3.86607e-05
29 *1270:RESET_B *355:25 0.000159964
30 *1282:A *355:25 0
31 *1312:A *355:48 0.000296088
32 *134:14 *355:48 0
33 *154:96 *355:25 0
34 *193:14 *355:8 4.92062e-05
35 *267:73 *1149:A0 1.08758e-05
*RES
1 *1266:Q *355:8 4.395 
2 *355:8 *355:10 1.125 
3 *355:10 *1160:A1 10.8 
4 *355:10 *355:25 10.305 
5 *355:25 *1159:A1 4.53 
6 *355:25 *355:48 22.535 
7 *355:48 *1182:A 1.6 
8 *355:48 *1149:A0 5.185 
9 *355:8 *1299:A 6.705 
*END

*D_NET *356 0.00263414
*CONN
*I *1012:A I *D sky130_fd_sc_hd__nand2_4
*I *1156:A1 I *D sky130_fd_sc_hd__o211a_1
*I *1088:A1 I *D sky130_fd_sc_hd__mux2_1
*I *1253:Q O *D sky130_fd_sc_hd__dfrtp_1
*CAP
1 *1012:A 0.000130493
2 *1156:A1 0.000119411
3 *1088:A1 2.18567e-05
4 *1253:Q 0
5 *356:10 0.000867974
6 *356:4 0.000857198
7 *1012:A *1045:A2 7.23533e-05
8 *1072:A1 *1088:A1 2.05056e-05
9 *1072:A1 *356:10 8.00441e-05
10 *1088:S *1088:A1 8.49205e-05
11 *1088:S *356:10 7.14699e-05
12 *1156:A2 *1156:A1 5.4155e-06
13 *1157:B1 *1156:A1 0.000116158
14 *1253:D *356:10 2.77283e-05
15 *1276:D *1012:A 0
16 *138:20 *1012:A 5.84828e-05
17 *159:71 *1156:A1 9.72742e-06
18 *293:118 *1088:A1 2.75229e-05
19 *310:12 *1156:A1 6.28765e-05
*RES
1 *1253:Q *356:4 1.6 
2 *356:4 *356:10 8.76 
3 *356:10 *1088:A1 2.395 
4 *356:10 *1156:A1 8.3 
5 *356:4 *1012:A 8.24 
*END

*D_NET *357 0.0076655
*CONN
*I *1093:A I *D sky130_fd_sc_hd__or3_2
*I *1148:A I *D sky130_fd_sc_hd__nand2_1
*I *1050:A I *D sky130_fd_sc_hd__inv_2
*I *1046:A I *D sky130_fd_sc_hd__clkbuf_4
*I *1075:A1 I *D sky130_fd_sc_hd__a32o_1
*I *1084:B I *D sky130_fd_sc_hd__nand2_1
*I *1082:A1 I *D sky130_fd_sc_hd__a31o_1
*I *1059:A I *D sky130_fd_sc_hd__nor3b_2
*I *1268:Q O *D sky130_fd_sc_hd__dfstp_2
*CAP
1 *1093:A 0
2 *1148:A 0.000202872
3 *1050:A 1.72654e-05
4 *1046:A 0
5 *1075:A1 0.000451424
6 *1084:B 2.52678e-05
7 *1082:A1 0.000114507
8 *1059:A 5.32934e-05
9 *1268:Q 8.00927e-05
10 *357:88 0.000309227
11 *357:77 0.000396209
12 *357:44 0.000476692
13 *357:31 0.00020108
14 *357:25 0.000263288
15 *357:19 0.000593961
16 *357:6 0.000278045
17 *1059:A *1110:B1 0
18 *357:19 *359:40 2.49909e-05
19 *357:25 *359:40 5.23362e-05
20 *357:77 *1093:B 1.99475e-05
21 *357:77 *359:30 5.04569e-05
22 *357:77 *359:40 0.000467723
23 *1084:A *1075:A1 9.53428e-06
24 *1084:A *1082:A1 8.53113e-06
25 *1084:A *357:31 5.23362e-05
26 *1085:A1 *1082:A1 2.1772e-05
27 *1091:A2 *1075:A1 0.000795131
28 *1160:A2 *1148:A 2.49909e-05
29 *1164:B1 *1148:A 0.000358243
30 *1165:A1_N *357:88 0.000119762
31 *1268:D *1059:A 4.82919e-05
32 *1268:D *357:6 0.000122325
33 *1282:A *1148:A 0
34 *1325:A *1075:A1 0.000274947
35 *154:77 *1148:A 4.66108e-05
36 *155:6 *357:25 2.04902e-05
37 *157:27 *1075:A1 0
38 *165:8 *357:25 3.39151e-05
39 *165:8 *357:31 3.85797e-05
40 *165:28 *1082:A1 9.33661e-05
41 *181:6 *1075:A1 8.40213e-05
42 *186:22 *357:77 9.00151e-05
43 *186:22 *357:88 0.000112779
44 *191:6 *357:77 8.64421e-05
45 *191:6 *357:88 0.000146135
46 *201:14 *357:77 2.68721e-05
47 *250:75 *1059:A 5.5201e-05
48 *250:75 *357:19 9.21735e-05
49 *251:55 *1082:A1 0.000181698
50 *251:55 *357:25 0.000160635
51 *251:55 *357:31 0.000309636
52 *274:44 *1075:A1 0
53 *293:46 *357:25 0
54 *293:67 *1075:A1 1.47347e-05
55 *293:67 *1084:B 2.49909e-05
56 *293:86 *357:25 3.13457e-05
57 *293:86 *357:31 0.000101315
*RES
1 *1268:Q *357:6 3.085 
2 *357:6 *1059:A 3.01 
3 *357:6 *357:19 4.52 
4 *357:19 *357:25 5.63 
5 *357:25 *357:31 5.45 
6 *357:31 *1082:A1 6.195 
7 *357:31 *357:44 2 
8 *357:44 *1084:B 2.05 
9 *357:44 *1075:A1 15.98 
10 *357:25 *1046:A 1.6 
11 *357:19 *357:77 9.2 
12 *357:77 *1050:A 1.96 
13 *357:77 *357:88 2.88 
14 *357:88 *1148:A 10.235 
15 *357:88 *1093:A 1.6 
*END

*D_NET *358 0.00223973
*CONN
*I *1152:A2 I *D sky130_fd_sc_hd__a31o_1
*I *1166:B I *D sky130_fd_sc_hd__nor2_1
*I *1311:A I *D sky130_fd_sc_hd__dlygate4sd3_1
*I *1269:Q O *D sky130_fd_sc_hd__dfrtp_1
*CAP
1 *1152:A2 0.000231029
2 *1166:B 0
3 *1311:A 2.08101e-05
4 *1269:Q 0.000182926
5 *358:25 0.000519565
6 *358:8 0.000492272
7 *1152:A2 *1166:A 0.000351039
8 *358:25 *1167:A1 6.74079e-05
9 *1152:A3 *1152:A2 4.82919e-05
10 *1167:A2 *1152:A2 2.93678e-05
11 *1174:A *358:8 0.000128645
12 *1174:A *358:25 6.61704e-05
13 *1224:A *1152:A2 0
14 *1272:RESET_B *358:25 8.88715e-05
15 *1301:A *1152:A2 1.33285e-05
*RES
1 *1269:Q *358:8 4.825 
2 *358:8 *1311:A 1.96 
3 *358:8 *358:25 8.95 
4 *358:25 *1166:B 1.6 
5 *358:25 *1152:A2 6.55 
*END

*D_NET *359 0.0139229
*CONN
*I *1167:A1 I *D sky130_fd_sc_hd__o21a_1
*I *1045:B1 I *D sky130_fd_sc_hd__o211a_1
*I *1012:B I *D sky130_fd_sc_hd__nand2_4
*I *1164:B2 I *D sky130_fd_sc_hd__a22o_1
*I *1098:A I *D sky130_fd_sc_hd__inv_2
*I *1093:B I *D sky130_fd_sc_hd__or3_2
*I *1059:C_N I *D sky130_fd_sc_hd__nor3b_2
*I *1110:B1 I *D sky130_fd_sc_hd__o311a_1
*I *1270:Q O *D sky130_fd_sc_hd__dfrtp_4
*CAP
1 *1167:A1 0.000676654
2 *1045:B1 3.37454e-05
3 *1012:B 0.000185981
4 *1164:B2 0
5 *1098:A 0
6 *1093:B 0.000213928
7 *1059:C_N 0
8 *1110:B1 8.9379e-05
9 *1270:Q 0
10 *359:91 0.0014756
11 *359:81 0.00214589
12 *359:40 0.000345014
13 *359:30 0.000509199
14 *359:26 0.000474518
15 *359:16 0.00148563
16 *359:4 0.00126412
17 *1012:B *1045:A2 0.000205368
18 *359:40 *1059:B 0
19 *359:91 *1045:A2 4.43871e-06
20 *1057:B1 *359:16 0
21 *1059:A *1110:B1 0
22 *1100:A *359:26 3.35139e-05
23 *1110:C1 *1110:B1 4.89295e-05
24 *1165:A1_N *1093:B 3.66286e-05
25 *1167:A2 *1167:A1 0.000141374
26 *1167:B1 *1167:A1 0.000124473
27 *1175:A0 *359:16 4.30926e-05
28 *1180:B *1167:A1 0
29 *1231:A *359:91 0
30 *1238:RESET_B *359:91 4.21178e-05
31 *1265:D *1167:A1 6.5368e-05
32 *1267:D *359:91 0.000105841
33 *1272:CLK *1167:A1 0.000152127
34 *1272:CLK *359:91 0.000204463
35 *1272:RESET_B *1167:A1 0.000483358
36 *1293:A *359:91 6.27529e-05
37 *132:10 *359:81 8.57024e-05
38 *132:128 *1167:A1 0.000147058
39 *133:90 *359:81 0.000200615
40 *133:101 *359:81 8.40213e-05
41 *134:14 *359:81 0.000124895
42 *155:125 *359:16 9.37731e-05
43 *186:22 *359:40 8.73389e-06
44 *191:6 *1093:B 0.000233535
45 *192:16 *359:16 2.42236e-05
46 *192:16 *359:26 0.000218255
47 *192:48 *359:16 4.05358e-05
48 *193:33 *359:91 0.000112654
49 *201:14 *359:26 0.000225192
50 *201:14 *359:30 1.01661e-05
51 *201:14 *359:40 0.000277029
52 *246:24 *1167:A1 8.53113e-06
53 *246:24 *359:91 9.37731e-05
54 *247:22 *359:81 0.000155995
55 *250:75 *1110:B1 0.00020736
56 *250:75 *359:40 2.63322e-05
57 *257:8 *359:16 4.82369e-05
58 *261:42 *359:91 0
59 *305:16 *359:91 0.000159964
60 *354:80 *1167:A1 0
61 *357:19 *359:40 2.49909e-05
62 *357:25 *359:40 5.23362e-05
63 *357:77 *1093:B 1.99475e-05
64 *357:77 *359:30 5.04569e-05
65 *357:77 *359:40 0.000467723
66 *358:25 *1167:A1 6.74079e-05
*RES
1 *1270:Q *359:4 1.6 
2 *359:4 *359:16 18.615 
3 *359:16 *359:26 9.375 
4 *359:26 *359:30 2.87 
5 *359:30 *359:40 10.96 
6 *359:40 *1110:B1 4.15 
7 *359:40 *1059:C_N 1.6 
8 *359:30 *1093:B 4.465 
9 *359:26 *1098:A 3.6 
10 *359:16 *1164:B2 3.6 
11 *359:4 *359:81 6.935 
12 *359:81 *359:91 21.985 
13 *359:91 *1012:B 7.785 
14 *359:91 *1045:B1 4.05 
15 *359:81 *1167:A1 19.2 
*END

*D_NET *360 0.0042088
*CONN
*I *1059:B I *D sky130_fd_sc_hd__nor3b_2
*I *1092:A I *D sky130_fd_sc_hd__clkbuf_4
*I *1104:A2 I *D sky130_fd_sc_hd__a21bo_1
*I *1103:A I *D sky130_fd_sc_hd__or2b_1
*I *1271:Q O *D sky130_fd_sc_hd__dfrtp_1
*CAP
1 *1059:B 0.000485121
2 *1092:A 0
3 *1104:A2 0.000221315
4 *1103:A 0.000253918
5 *1271:Q 0.000179764
6 *360:18 0.000757552
7 *360:12 0.000464115
8 *360:10 0.000846682
9 *1103:B_N *1103:A 2.11084e-05
10 *1196:A *1103:A 1.7386e-05
11 *1198:B *360:18 2.07184e-05
12 *1199:A *360:18 8.23457e-05
13 *1199:B *360:18 4.66108e-05
14 *1268:D *1059:B 7.44453e-05
15 *131:14 *360:10 0
16 *131:14 *360:18 0.000180373
17 *131:61 *360:10 0.000130072
18 *131:76 *360:10 6.18754e-05
19 *186:10 *360:10 0
20 *186:10 *360:12 1.63139e-05
21 *186:10 *360:18 1.17409e-05
22 *186:40 *360:10 0
23 *201:14 *1059:B 0
24 *249:59 *1103:A 0.000139933
25 *249:59 *360:18 0.000116853
26 *293:46 *1059:B 8.05595e-05
27 *359:40 *1059:B 0
*RES
1 *1271:Q *360:10 9.53 
2 *360:10 *360:12 2.52 
3 *360:12 *360:18 7.535 
4 *360:18 *1103:A 7.41 
5 *360:18 *1104:A2 6.81 
6 *360:12 *1092:A 1.6 
7 *360:10 *1059:B 13.085 
*END

*D_NET *361 0.00394458
*CONN
*I *1151:A I *D sky130_fd_sc_hd__inv_2
*I *1166:A I *D sky130_fd_sc_hd__nor2_1
*I *1155:A1 I *D sky130_fd_sc_hd__a21o_1
*I *1291:A I *D sky130_fd_sc_hd__dlygate4sd3_1
*I *1272:Q O *D sky130_fd_sc_hd__dfrtp_1
*CAP
1 *1151:A 0.000336728
2 *1166:A 0.000258245
3 *1155:A1 2.55711e-05
4 *1291:A 0
5 *1272:Q 0.00017542
6 *361:40 0.000764403
7 *361:25 0.000429102
8 *361:12 0.000409521
9 *1020:A0 *361:25 7.47457e-05
10 *1152:A2 *1166:A 0.000351039
11 *1152:A3 *1155:A1 3.45252e-05
12 *1152:A3 *361:25 2.86623e-05
13 *1152:A3 *361:40 0.00016866
14 *1152:B1 *1151:A 0.000116294
15 *1155:A2 *1155:A1 2.51977e-05
16 *1155:B1 *1155:A1 1.85674e-05
17 *1180:A *361:12 1.4399e-05
18 *1284:A *361:25 2.16389e-05
19 *1285:A *1166:A 4.9968e-05
20 *1285:A *361:40 3.67779e-05
21 *1301:A *1151:A 0.000122337
22 *1301:A *1166:A 0.000168942
23 *132:20 *361:12 7.06796e-06
24 *193:50 *361:12 5.4256e-05
25 *268:6 *1155:A1 1.08758e-05
26 *268:10 *361:25 0.000114492
27 *268:10 *361:40 2.07184e-05
28 *268:56 *1155:A1 3.57349e-05
29 *354:80 *361:12 7.06865e-05
*RES
1 *1272:Q *361:12 8.375 
2 *361:12 *1291:A 1.6 
3 *361:12 *361:25 5.825 
4 *361:25 *1155:A1 4.41 
5 *361:25 *361:40 5.675 
6 *361:40 *1166:A 10.565 
7 *361:40 *1151:A 6.115 
*END

*D_NET *362 0.00177364
*CONN
*I *1310:A I *D sky130_fd_sc_hd__dlygate4sd3_1
*I *1045:A2 I *D sky130_fd_sc_hd__o211a_1
*I *1252:Q O *D sky130_fd_sc_hd__dfrtp_1
*CAP
1 *1310:A 0
2 *1045:A2 0.000522862
3 *1252:Q 0.000139336
4 *362:12 0.000662199
5 *1012:A *1045:A2 7.23533e-05
6 *1012:B *1045:A2 0.000205368
7 *1072:A1 *362:12 4.99619e-05
8 *1231:A *1045:A2 0
9 *1276:CLK *1045:A2 0
10 *1276:D *1045:A2 0
11 *136:42 *1045:A2 0.000117116
12 *359:91 *1045:A2 4.43871e-06
*RES
1 *1252:Q *362:12 7.685 
2 *362:12 *1045:A2 15.44 
3 *362:12 *1310:A 1.6 
*END
