*SPEF "ieee 1481-1999"
*DESIGN "housekeeping_spi"
*DATE "11:11:11 Fri 11 11, 1111"
*VENDOR "OpenRCX"
*PROGRAM "Parallel Extraction"
*VERSION "1.0"
*DESIGN_FLOW "NAME_SCOPE LOCAL" "PIN_CAP NONE"
*DIVIDER /
*DELIMITER :
*BUS_DELIMITER []
*T_UNIT 1 NS
*C_UNIT 1 PF
*R_UNIT 1 OHM
*L_UNIT 1 HENRY

*NAME_MAP
*1 CSB
*2 SCK
*3 SDI
*4 SDO
*7 idata[0]
*8 idata[1]
*9 idata[2]
*10 idata[3]
*11 idata[4]
*12 idata[5]
*13 idata[6]
*14 idata[7]
*15 oaddr[0]
*16 oaddr[1]
*17 oaddr[2]
*18 oaddr[3]
*19 oaddr[4]
*20 oaddr[5]
*21 oaddr[6]
*22 oaddr[7]
*23 odata[0]
*24 odata[1]
*25 odata[2]
*26 odata[3]
*27 odata[4]
*28 odata[5]
*29 odata[6]
*30 odata[7]
*31 pass_thru_mgmt
*32 pass_thru_mgmt_delay
*33 pass_thru_mgmt_reset
*34 pass_thru_user
*35 pass_thru_user_delay
*36 pass_thru_user_reset
*37 rdstb
*38 reset
*39 sdoenb
*40 wrstb
*41 _000_
*42 _001_
*43 _002_
*44 _003_
*45 _004_
*46 _005_
*47 _006_
*48 _007_
*49 _008_
*50 _009_
*51 _010_
*52 _011_
*53 _012_
*54 _013_
*55 _014_
*56 _015_
*57 _016_
*58 _017_
*59 _018_
*60 _019_
*61 _020_
*62 _021_
*63 _022_
*64 _023_
*65 _024_
*66 _025_
*67 _026_
*68 _027_
*69 _028_
*70 _029_
*71 _030_
*72 _031_
*73 _032_
*74 _033_
*75 _034_
*76 _035_
*77 _037_
*78 _038_
*79 _040_
*80 _041_
*81 _042_
*82 _043_
*83 _044_
*84 _045_
*85 _047_
*86 _049_
*87 _051_
*88 _053_
*89 _055_
*90 _057_
*91 _059_
*92 _061_
*93 _062_
*94 _063_
*95 _064_
*96 _065_
*97 _066_
*98 _067_
*99 _068_
*100 _069_
*101 _070_
*102 _071_
*103 _072_
*104 _073_
*105 _074_
*106 _075_
*107 _076_
*108 _077_
*109 _078_
*110 _079_
*111 _080_
*112 _081_
*113 _082_
*114 _083_
*115 _084_
*116 _085_
*117 _086_
*118 _087_
*119 _088_
*120 _089_
*121 _090_
*122 _091_
*123 _092_
*124 _093_
*125 _094_
*126 _095_
*127 _096_
*128 _097_
*129 _098_
*130 _099_
*131 _100_
*132 _101_
*133 _102_
*134 _103_
*135 _104_
*136 _105_
*137 _106_
*138 _107_
*139 _108_
*140 _109_
*141 _110_
*142 _111_
*143 _112_
*144 _113_
*145 _114_
*146 _115_
*147 _116_
*148 _117_
*149 _118_
*150 _119_
*151 _120_
*152 _121_
*153 _122_
*154 _123_
*155 _124_
*156 _125_
*157 _126_
*158 _127_
*159 _128_
*160 _129_
*161 _130_
*162 _131_
*163 _132_
*164 _133_
*165 _134_
*166 _135_
*167 _136_
*168 _137_
*169 _138_
*170 _139_
*171 _140_
*172 _141_
*173 _142_
*174 _143_
*175 _144_
*176 _145_
*177 _146_
*178 _147_
*179 _148_
*180 _149_
*181 _150_
*182 _151_
*183 _152_
*184 _153_
*185 _154_
*186 _155_
*187 _156_
*188 _157_
*189 _158_
*190 _159_
*191 _160_
*192 _161_
*193 _162_
*194 _163_
*195 _164_
*196 _165_
*197 _166_
*198 _167_
*199 _168_
*200 _169_
*201 _170_
*202 _171_
*203 _172_
*204 _173_
*205 _174_
*206 _175_
*207 _176_
*208 _177_
*209 _178_
*210 _179_
*211 _180_
*212 _181_
*213 _182_
*214 _183_
*215 _184_
*216 _185_
*217 _186_
*218 _187_
*219 _188_
*220 _189_
*221 _190_
*222 _191_
*223 _192_
*224 _193_
*225 _194_
*226 _195_
*227 _196_
*228 _197_
*229 _198_
*230 _199_
*231 _200_
*232 _201_
*233 _202_
*234 _203_
*235 _204_
*236 _205_
*237 _206_
*238 _207_
*239 _208_
*240 _209_
*241 _210_
*242 _211_
*243 _212_
*244 _213_
*245 _214_
*246 _215_
*247 _216_
*248 _217_
*249 _218_
*250 _219_
*251 _220_
*252 _221_
*253 addr\[0\]
*254 addr\[1\]
*255 addr\[2\]
*256 addr\[3\]
*257 addr\[4\]
*258 addr\[5\]
*259 addr\[6\]
*260 addr\[7\]
*261 clknet_0_SCK
*262 clknet_0__221_
*263 clknet_1_0__leaf__221_
*264 clknet_1_1__leaf__221_
*265 clknet_2_0__leaf_SCK
*266 clknet_2_1__leaf_SCK
*267 clknet_2_2__leaf_SCK
*268 clknet_2_3__leaf_SCK
*269 count\[0\]
*270 count\[1\]
*271 count\[2\]
*272 fixed\[0\]
*273 fixed\[1\]
*274 fixed\[2\]
*275 ldata\[0\]
*276 ldata\[1\]
*277 ldata\[2\]
*278 ldata\[3\]
*279 ldata\[4\]
*280 ldata\[5\]
*281 ldata\[6\]
*282 net1
*283 net10
*284 net11
*285 net12
*286 net13
*287 net14
*288 net15
*289 net16
*290 net17
*291 net18
*292 net19
*293 net2
*294 net20
*295 net21
*296 net22
*297 net23
*298 net24
*299 net25
*300 net26
*301 net27
*302 net28
*303 net29
*304 net3
*305 net30
*306 net31
*307 net32
*308 net33
*309 net34
*310 net35
*311 net36
*312 net37
*313 net38
*314 net39
*315 net4
*316 net40
*317 net41
*318 net42
*319 net43
*320 net44
*321 net45
*322 net46
*323 net47
*324 net48
*325 net49
*326 net5
*327 net50
*328 net51
*329 net52
*330 net53
*331 net54
*332 net55
*333 net56
*334 net57
*335 net58
*336 net59
*337 net6
*338 net60
*339 net61
*340 net62
*341 net63
*342 net64
*343 net65
*344 net66
*345 net67
*346 net68
*347 net69
*348 net7
*349 net70
*350 net71
*351 net72
*352 net8
*353 net9
*354 pre_pass_thru_mgmt
*355 pre_pass_thru_user
*356 readmode
*357 state\[0\]
*358 state\[1\]
*359 state\[2\]
*360 state\[3\]
*361 state\[4\]
*362 writemode
*363 FILLER_0_0_104
*364 FILLER_0_0_113
*365 FILLER_0_0_119
*366 FILLER_0_0_126
*367 FILLER_0_0_134
*368 FILLER_0_0_138
*369 FILLER_0_0_156
*370 FILLER_0_0_162
*371 FILLER_0_0_169
*372 FILLER_0_0_174
*373 FILLER_0_0_20
*374 FILLER_0_0_3
*375 FILLER_0_0_38
*376 FILLER_0_0_60
*377 FILLER_0_0_7
*378 FILLER_0_0_72
*379 FILLER_0_0_85
*380 FILLER_0_0_97
*381 FILLER_0_10_109
*382 FILLER_0_10_125
*383 FILLER_0_10_135
*384 FILLER_0_10_139
*385 FILLER_0_10_141
*386 FILLER_0_10_151
*387 FILLER_0_10_163
*388 FILLER_0_10_175
*389 FILLER_0_10_181
*390 FILLER_0_10_29
*391 FILLER_0_10_3
*392 FILLER_0_10_67
*393 FILLER_0_10_83
*394 FILLER_0_10_97
*395 FILLER_0_11_108
*396 FILLER_0_11_121
*397 FILLER_0_11_133
*398 FILLER_0_11_145
*399 FILLER_0_11_15
*400 FILLER_0_11_157
*401 FILLER_0_11_165
*402 FILLER_0_11_169
*403 FILLER_0_11_175
*404 FILLER_0_11_26
*405 FILLER_0_11_3
*406 FILLER_0_11_38
*407 FILLER_0_11_46
*408 FILLER_0_11_50
*409 FILLER_0_11_57
*410 FILLER_0_11_63
*411 FILLER_0_11_84
*412 FILLER_0_11_96
*413 FILLER_0_12_105
*414 FILLER_0_12_11
*415 FILLER_0_12_125
*416 FILLER_0_12_133
*417 FILLER_0_12_138
*418 FILLER_0_12_150
*419 FILLER_0_12_156
*420 FILLER_0_12_160
*421 FILLER_0_12_166
*422 FILLER_0_12_176
*423 FILLER_0_12_23
*424 FILLER_0_12_27
*425 FILLER_0_12_29
*426 FILLER_0_12_41
*427 FILLER_0_12_48
*428 FILLER_0_12_6
*429 FILLER_0_12_60
*430 FILLER_0_12_72
*431 FILLER_0_12_85
*432 FILLER_0_12_93
*433 FILLER_0_13_111
*434 FILLER_0_13_113
*435 FILLER_0_13_146
*436 FILLER_0_13_178
*437 FILLER_0_13_24
*438 FILLER_0_13_3
*439 FILLER_0_13_32
*440 FILLER_0_13_37
*441 FILLER_0_13_49
*442 FILLER_0_13_57
*443 FILLER_0_13_65
*444 FILLER_0_13_73
*445 FILLER_0_13_81
*446 FILLER_0_13_87
*447 FILLER_0_14_10
*448 FILLER_0_14_112
*449 FILLER_0_14_128
*450 FILLER_0_14_152
*451 FILLER_0_14_181
*452 FILLER_0_14_22
*453 FILLER_0_14_3
*454 FILLER_0_14_76
*455 FILLER_0_15_103
*456 FILLER_0_15_111
*457 FILLER_0_15_113
*458 FILLER_0_15_117
*459 FILLER_0_15_126
*460 FILLER_0_15_149
*461 FILLER_0_15_161
*462 FILLER_0_15_166
*463 FILLER_0_15_18
*464 FILLER_0_15_26
*465 FILLER_0_15_3
*466 FILLER_0_15_32
*467 FILLER_0_15_44
*468 FILLER_0_15_60
*469 FILLER_0_15_79
*470 FILLER_0_16_135
*471 FILLER_0_16_161
*472 FILLER_0_16_17
*473 FILLER_0_16_25
*474 FILLER_0_16_29
*475 FILLER_0_16_39
*476 FILLER_0_16_51
*477 FILLER_0_16_61
*478 FILLER_0_16_73
*479 FILLER_0_16_81
*480 FILLER_0_16_88
*481 FILLER_0_16_9
*482 FILLER_0_16_94
*483 FILLER_0_17_116
*484 FILLER_0_17_124
*485 FILLER_0_17_128
*486 FILLER_0_17_140
*487 FILLER_0_17_152
*488 FILLER_0_17_167
*489 FILLER_0_17_169
*490 FILLER_0_17_173
*491 FILLER_0_17_24
*492 FILLER_0_17_3
*493 FILLER_0_17_30
*494 FILLER_0_17_55
*495 FILLER_0_17_57
*496 FILLER_0_17_7
*497 FILLER_0_17_97
*498 FILLER_0_18_123
*499 FILLER_0_18_129
*500 FILLER_0_18_133
*501 FILLER_0_18_139
*502 FILLER_0_18_141
*503 FILLER_0_18_147
*504 FILLER_0_18_151
*505 FILLER_0_18_159
*506 FILLER_0_18_164
*507 FILLER_0_18_173
*508 FILLER_0_18_181
*509 FILLER_0_18_23
*510 FILLER_0_18_27
*511 FILLER_0_18_29
*512 FILLER_0_18_3
*513 FILLER_0_18_41
*514 FILLER_0_18_47
*515 FILLER_0_18_71
*516 FILLER_0_18_83
*517 FILLER_0_18_85
*518 FILLER_0_18_97
*519 FILLER_0_19_110
*520 FILLER_0_19_121
*521 FILLER_0_19_144
*522 FILLER_0_19_152
*523 FILLER_0_19_16
*524 FILLER_0_19_162
*525 FILLER_0_19_169
*526 FILLER_0_19_175
*527 FILLER_0_19_28
*528 FILLER_0_19_3
*529 FILLER_0_19_40
*530 FILLER_0_19_44
*531 FILLER_0_19_48
*532 FILLER_0_19_57
*533 FILLER_0_19_62
*534 FILLER_0_19_7
*535 FILLER_0_19_74
*536 FILLER_0_19_86
*537 FILLER_0_19_90
*538 FILLER_0_19_94
*539 FILLER_0_1_103
*540 FILLER_0_1_111
*541 FILLER_0_1_12
*542 FILLER_0_1_156
*543 FILLER_0_1_167
*544 FILLER_0_1_172
*545 FILLER_0_1_178
*546 FILLER_0_1_24
*547 FILLER_0_1_54
*548 FILLER_0_1_57
*549 FILLER_0_1_65
*550 FILLER_0_1_86
*551 FILLER_0_20_121
*552 FILLER_0_20_137
*553 FILLER_0_20_14
*554 FILLER_0_20_149
*555 FILLER_0_20_181
*556 FILLER_0_20_20
*557 FILLER_0_20_29
*558 FILLER_0_20_37
*559 FILLER_0_20_6
*560 FILLER_0_20_74
*561 FILLER_0_20_82
*562 FILLER_0_20_93
*563 FILLER_0_21_106
*564 FILLER_0_21_11
*565 FILLER_0_21_113
*566 FILLER_0_21_125
*567 FILLER_0_21_148
*568 FILLER_0_21_163
*569 FILLER_0_21_167
*570 FILLER_0_21_180
*571 FILLER_0_21_28
*572 FILLER_0_21_3
*573 FILLER_0_21_38
*574 FILLER_0_21_55
*575 FILLER_0_21_61
*576 FILLER_0_21_74
*577 FILLER_0_22_108
*578 FILLER_0_22_114
*579 FILLER_0_22_120
*580 FILLER_0_22_139
*581 FILLER_0_22_141
*582 FILLER_0_22_153
*583 FILLER_0_22_16
*584 FILLER_0_22_165
*585 FILLER_0_22_177
*586 FILLER_0_22_181
*587 FILLER_0_22_29
*588 FILLER_0_22_3
*589 FILLER_0_22_41
*590 FILLER_0_22_49
*591 FILLER_0_22_53
*592 FILLER_0_22_65
*593 FILLER_0_22_77
*594 FILLER_0_22_83
*595 FILLER_0_22_96
*596 FILLER_0_23_10
*597 FILLER_0_23_111
*598 FILLER_0_23_119
*599 FILLER_0_23_125
*600 FILLER_0_23_154
*601 FILLER_0_23_166
*602 FILLER_0_23_169
*603 FILLER_0_23_180
*604 FILLER_0_23_22
*605 FILLER_0_23_34
*606 FILLER_0_23_46
*607 FILLER_0_23_54
*608 FILLER_0_23_57
*609 FILLER_0_23_75
*610 FILLER_0_23_87
*611 FILLER_0_23_99
*612 FILLER_0_24_121
*613 FILLER_0_24_129
*614 FILLER_0_24_133
*615 FILLER_0_24_139
*616 FILLER_0_24_141
*617 FILLER_0_24_153
*618 FILLER_0_24_160
*619 FILLER_0_24_172
*620 FILLER_0_24_178
*621 FILLER_0_24_29
*622 FILLER_0_24_3
*623 FILLER_0_24_35
*624 FILLER_0_24_39
*625 FILLER_0_24_62
*626 FILLER_0_24_77
*627 FILLER_0_24_83
*628 FILLER_0_24_88
*629 FILLER_0_24_96
*630 FILLER_0_25_113
*631 FILLER_0_25_119
*632 FILLER_0_25_143
*633 FILLER_0_25_147
*634 FILLER_0_25_16
*635 FILLER_0_25_178
*636 FILLER_0_25_27
*637 FILLER_0_25_3
*638 FILLER_0_25_39
*639 FILLER_0_25_54
*640 FILLER_0_25_57
*641 FILLER_0_25_69
*642 FILLER_0_26_10
*643 FILLER_0_26_109
*644 FILLER_0_26_128
*645 FILLER_0_26_141
*646 FILLER_0_26_145
*647 FILLER_0_26_152
*648 FILLER_0_26_164
*649 FILLER_0_26_170
*650 FILLER_0_26_22
*651 FILLER_0_26_3
*652 FILLER_0_26_38
*653 FILLER_0_26_50
*654 FILLER_0_26_62
*655 FILLER_0_26_66
*656 FILLER_0_26_70
*657 FILLER_0_26_82
*658 FILLER_0_26_85
*659 FILLER_0_26_97
*660 FILLER_0_27_105
*661 FILLER_0_27_111
*662 FILLER_0_27_113
*663 FILLER_0_27_125
*664 FILLER_0_27_137
*665 FILLER_0_27_149
*666 FILLER_0_27_15
*667 FILLER_0_27_161
*668 FILLER_0_27_167
*669 FILLER_0_27_27
*670 FILLER_0_27_3
*671 FILLER_0_27_39
*672 FILLER_0_27_51
*673 FILLER_0_27_55
*674 FILLER_0_27_60
*675 FILLER_0_27_72
*676 FILLER_0_27_84
*677 FILLER_0_27_96
*678 FILLER_0_28_121
*679 FILLER_0_28_125
*680 FILLER_0_28_136
*681 FILLER_0_28_15
*682 FILLER_0_28_152
*683 FILLER_0_28_156
*684 FILLER_0_28_180
*685 FILLER_0_28_27
*686 FILLER_0_28_3
*687 FILLER_0_28_32
*688 FILLER_0_28_41
*689 FILLER_0_28_77
*690 FILLER_0_28_83
*691 FILLER_0_28_88
*692 FILLER_0_29_101
*693 FILLER_0_29_109
*694 FILLER_0_29_15
*695 FILLER_0_29_151
*696 FILLER_0_29_177
*697 FILLER_0_29_181
*698 FILLER_0_29_23
*699 FILLER_0_29_49
*700 FILLER_0_29_55
*701 FILLER_0_29_57
*702 FILLER_0_29_91
*703 FILLER_0_29_97
*704 FILLER_0_2_108
*705 FILLER_0_2_116
*706 FILLER_0_2_124
*707 FILLER_0_2_136
*708 FILLER_0_2_144
*709 FILLER_0_2_15
*710 FILLER_0_2_156
*711 FILLER_0_2_3
*712 FILLER_0_2_44
*713 FILLER_0_2_56
*714 FILLER_0_2_66
*715 FILLER_0_2_78
*716 FILLER_0_2_96
*717 FILLER_0_30_104
*718 FILLER_0_30_113
*719 FILLER_0_30_123
*720 FILLER_0_30_135
*721 FILLER_0_30_139
*722 FILLER_0_30_141
*723 FILLER_0_30_149
*724 FILLER_0_30_16
*725 FILLER_0_30_165
*726 FILLER_0_30_169
*727 FILLER_0_30_29
*728 FILLER_0_30_3
*729 FILLER_0_30_37
*730 FILLER_0_30_41
*731 FILLER_0_30_53
*732 FILLER_0_30_57
*733 FILLER_0_30_65
*734 FILLER_0_30_77
*735 FILLER_0_30_83
*736 FILLER_0_30_91
*737 FILLER_0_30_99
*738 FILLER_0_3_101
*739 FILLER_0_3_109
*740 FILLER_0_3_136
*741 FILLER_0_3_148
*742 FILLER_0_3_15
*743 FILLER_0_3_160
*744 FILLER_0_3_169
*745 FILLER_0_3_181
*746 FILLER_0_3_3
*747 FILLER_0_3_48
*748 FILLER_0_3_77
*749 FILLER_0_3_89
*750 FILLER_0_4_109
*751 FILLER_0_4_121
*752 FILLER_0_4_129
*753 FILLER_0_4_134
*754 FILLER_0_4_141
*755 FILLER_0_4_150
*756 FILLER_0_4_158
*757 FILLER_0_4_181
*758 FILLER_0_4_21
*759 FILLER_0_4_27
*760 FILLER_0_4_29
*761 FILLER_0_4_42
*762 FILLER_0_4_54
*763 FILLER_0_4_65
*764 FILLER_0_4_77
*765 FILLER_0_4_83
*766 FILLER_0_4_85
*767 FILLER_0_4_9
*768 FILLER_0_4_97
*769 FILLER_0_5_106
*770 FILLER_0_5_15
*771 FILLER_0_5_160
*772 FILLER_0_5_175
*773 FILLER_0_5_181
*774 FILLER_0_5_27
*775 FILLER_0_5_3
*776 FILLER_0_5_50
*777 FILLER_0_5_64
*778 FILLER_0_5_76
*779 FILLER_0_5_84
*780 FILLER_0_5_92
*781 FILLER_0_6_121
*782 FILLER_0_6_133
*783 FILLER_0_6_139
*784 FILLER_0_6_141
*785 FILLER_0_6_15
*786 FILLER_0_6_158
*787 FILLER_0_6_168
*788 FILLER_0_6_180
*789 FILLER_0_6_27
*790 FILLER_0_6_29
*791 FILLER_0_6_3
*792 FILLER_0_6_41
*793 FILLER_0_6_65
*794 FILLER_0_6_75
*795 FILLER_0_6_83
*796 FILLER_0_7_100
*797 FILLER_0_7_104
*798 FILLER_0_7_113
*799 FILLER_0_7_130
*800 FILLER_0_7_142
*801 FILLER_0_7_15
*802 FILLER_0_7_154
*803 FILLER_0_7_166
*804 FILLER_0_7_169
*805 FILLER_0_7_177
*806 FILLER_0_7_27
*807 FILLER_0_7_3
*808 FILLER_0_7_38
*809 FILLER_0_7_50
*810 FILLER_0_7_74
*811 FILLER_0_7_88
*812 FILLER_0_8_131
*813 FILLER_0_8_141
*814 FILLER_0_8_153
*815 FILLER_0_8_175
*816 FILLER_0_8_181
*817 FILLER_0_8_29
*818 FILLER_0_8_3
*819 FILLER_0_8_41
*820 FILLER_0_8_53
*821 FILLER_0_8_62
*822 FILLER_0_8_74
*823 FILLER_0_8_82
*824 FILLER_0_8_85
*825 FILLER_0_9_10
*826 FILLER_0_9_102
*827 FILLER_0_9_111
*828 FILLER_0_9_113
*829 FILLER_0_9_121
*830 FILLER_0_9_130
*831 FILLER_0_9_163
*832 FILLER_0_9_167
*833 FILLER_0_9_169
*834 FILLER_0_9_181
*835 FILLER_0_9_27
*836 FILLER_0_9_3
*837 FILLER_0_9_39
*838 FILLER_0_9_48
*839 FILLER_0_9_57
*840 FILLER_0_9_67
*841 FILLER_0_9_79
*842 FILLER_0_9_91
*843 PHY_0
*844 PHY_1
*845 PHY_10
*846 PHY_11
*847 PHY_12
*848 PHY_13
*849 PHY_14
*850 PHY_15
*851 PHY_16
*852 PHY_17
*853 PHY_18
*854 PHY_19
*855 PHY_2
*856 PHY_20
*857 PHY_21
*858 PHY_22
*859 PHY_23
*860 PHY_24
*861 PHY_25
*862 PHY_26
*863 PHY_27
*864 PHY_28
*865 PHY_29
*866 PHY_3
*867 PHY_30
*868 PHY_31
*869 PHY_32
*870 PHY_33
*871 PHY_34
*872 PHY_35
*873 PHY_36
*874 PHY_37
*875 PHY_38
*876 PHY_39
*877 PHY_4
*878 PHY_40
*879 PHY_41
*880 PHY_42
*881 PHY_43
*882 PHY_44
*883 PHY_45
*884 PHY_46
*885 PHY_47
*886 PHY_48
*887 PHY_49
*888 PHY_5
*889 PHY_50
*890 PHY_51
*891 PHY_52
*892 PHY_53
*893 PHY_54
*894 PHY_55
*895 PHY_56
*896 PHY_57
*897 PHY_58
*898 PHY_59
*899 PHY_6
*900 PHY_60
*901 PHY_61
*902 PHY_7
*903 PHY_8
*904 PHY_9
*905 TAP_100
*906 TAP_101
*907 TAP_102
*908 TAP_103
*909 TAP_104
*910 TAP_105
*911 TAP_106
*912 TAP_107
*913 TAP_108
*914 TAP_109
*915 TAP_110
*916 TAP_111
*917 TAP_112
*918 TAP_113
*919 TAP_114
*920 TAP_115
*921 TAP_116
*922 TAP_117
*923 TAP_118
*924 TAP_119
*925 TAP_120
*926 TAP_121
*927 TAP_122
*928 TAP_123
*929 TAP_124
*930 TAP_125
*931 TAP_126
*932 TAP_127
*933 TAP_128
*934 TAP_129
*935 TAP_130
*936 TAP_131
*937 TAP_132
*938 TAP_133
*939 TAP_134
*940 TAP_135
*941 TAP_136
*942 TAP_137
*943 TAP_138
*944 TAP_139
*945 TAP_140
*946 TAP_141
*947 TAP_142
*948 TAP_143
*949 TAP_144
*950 TAP_145
*951 TAP_146
*952 TAP_147
*953 TAP_148
*954 TAP_149
*955 TAP_150
*956 TAP_151
*957 TAP_152
*958 TAP_153
*959 TAP_154
*960 TAP_155
*961 TAP_156
*962 TAP_157
*963 TAP_158
*964 TAP_159
*965 TAP_160
*966 TAP_62
*967 TAP_63
*968 TAP_64
*969 TAP_65
*970 TAP_66
*971 TAP_67
*972 TAP_68
*973 TAP_69
*974 TAP_70
*975 TAP_71
*976 TAP_72
*977 TAP_73
*978 TAP_74
*979 TAP_75
*980 TAP_76
*981 TAP_77
*982 TAP_78
*983 TAP_79
*984 TAP_80
*985 TAP_81
*986 TAP_82
*987 TAP_83
*988 TAP_84
*989 TAP_85
*990 TAP_86
*991 TAP_87
*992 TAP_88
*993 TAP_89
*994 TAP_90
*995 TAP_91
*996 TAP_92
*997 TAP_93
*998 TAP_94
*999 TAP_95
*1000 TAP_96
*1001 TAP_97
*1002 TAP_98
*1003 TAP_99
*1004 _222_
*1005 _223_
*1006 _224_
*1007 _225_
*1008 _226_
*1009 _227_
*1010 _228_
*1011 _229_
*1012 _230_
*1013 _231_
*1014 _232_
*1015 _233_
*1016 _234_
*1017 _235_
*1018 _236_
*1019 _237_
*1020 _238_
*1021 _239_
*1022 _240_
*1023 _241_
*1024 _242_
*1025 _243_
*1026 _244_
*1027 _245_
*1028 _246_
*1029 _247_
*1030 _248_
*1031 _249_
*1032 _250_
*1033 _251_
*1034 _252_
*1035 _253_
*1036 _254_
*1037 _255_
*1038 _256_
*1039 _257_
*1040 _258_
*1041 _259_
*1042 _260_
*1043 _261_
*1044 _262_
*1045 _263_
*1046 _264_
*1047 _265_
*1048 _266_
*1049 _267_
*1050 _268_
*1051 _269_
*1052 _270_
*1053 _271_
*1054 _272_
*1055 _273_
*1056 _274_
*1057 _275_
*1058 _276_
*1059 _277_
*1060 _278_
*1061 _279_
*1062 _280_
*1063 _281_
*1064 _282_
*1065 _283_
*1066 _284_
*1067 _285_
*1068 _286_
*1069 _287_
*1070 _288_
*1071 _289_
*1072 _290_
*1073 _291_
*1074 _292_
*1075 _293_
*1076 _294_
*1077 _295_
*1078 _296_
*1079 _297_
*1080 _298_
*1081 _299_
*1082 _300_
*1083 _301_
*1084 _302_
*1085 _303_
*1086 _304_
*1087 _305_
*1088 _306_
*1089 _307_
*1090 _308_
*1091 _309_
*1092 _310_
*1093 _311_
*1094 _312_
*1095 _313_
*1096 _314_
*1097 _315_
*1098 _316_
*1099 _317_
*1100 _318_
*1101 _319_
*1102 _320_
*1103 _321_
*1104 _322_
*1105 _323_
*1106 _324_
*1107 _325_
*1108 _326_
*1109 _327_
*1110 _328_
*1111 _329_
*1112 _330_
*1113 _331_
*1114 _332_
*1115 _333_
*1116 _334_
*1117 _335_
*1118 _336_
*1119 _337_
*1120 _338_
*1121 _339_
*1122 _340_
*1123 _341_
*1124 _342_
*1125 _343_
*1126 _344_
*1127 _345_
*1128 _346_
*1129 _347_
*1130 _348_
*1131 _349_
*1132 _350_
*1133 _351_
*1134 _352_
*1135 _353_
*1136 _354_
*1137 _355_
*1138 _356_
*1139 _357_
*1140 _358_
*1141 _359_
*1142 _360_
*1143 _361_
*1144 _362_
*1145 _363_
*1146 _364_
*1147 _365_
*1148 _366_
*1149 _367_
*1150 _368_
*1151 _369_
*1152 _370_
*1153 _371_
*1154 _372_
*1155 _373_
*1156 _374_
*1157 _375_
*1158 _376_
*1159 _377_
*1160 _378_
*1161 _379_
*1162 _380_
*1163 _381_
*1164 _382_
*1165 _383_
*1166 _384_
*1167 _385_
*1168 _386_
*1169 _387_
*1170 _388_
*1171 _389_
*1172 _390_
*1173 _391_
*1174 _392_
*1175 _393_
*1176 _394_
*1177 _395_
*1178 _396_
*1179 _397_
*1180 _398_
*1181 _399_
*1182 _400_
*1183 _401_
*1184 _402_
*1185 _403_
*1186 _404_
*1187 _405_
*1188 _406_
*1189 _407_
*1190 _408_
*1191 _409_
*1192 _410_
*1193 _411_
*1194 _412_
*1195 _413_
*1196 _414_
*1197 _415_
*1198 _416_
*1199 _417_
*1200 _418_
*1201 _419_
*1202 _420_
*1203 _421_
*1204 _422_
*1205 _423_
*1206 _424_
*1207 _425_
*1208 _426_
*1209 _427_
*1210 _428_
*1211 _429_
*1212 _430_
*1213 _431_
*1214 _432_
*1215 _433_
*1216 _434_
*1217 _435_
*1218 _436_
*1219 _437_
*1220 _438__1
*1221 _439_
*1222 _440__2
*1223 _441_
*1224 _442_
*1225 _443_
*1226 _444_
*1227 _445_
*1228 _446__3
*1229 _447__4
*1230 _448__5
*1231 _449__6
*1232 _450__7
*1233 _451__8
*1234 _452__9
*1235 _453__10
*1236 _454_
*1237 _455_
*1238 _456_
*1239 _457_
*1240 _458_
*1241 _459_
*1242 _460_
*1243 _461_
*1244 _462_
*1245 _463_
*1246 _464_
*1247 _465_
*1248 _466_
*1249 _467_
*1250 _468_
*1251 _469_
*1252 _470_
*1253 _471_
*1254 _472_
*1255 _473_
*1256 _474_
*1257 _475_
*1258 _476_
*1259 _477_
*1260 _478_
*1261 _479_
*1262 _480_
*1263 _481_
*1264 _482_
*1265 _483_
*1266 _484_
*1267 _485_
*1268 _486_
*1269 _487_
*1270 _488_
*1271 _489_
*1272 _490_
*1273 _491_
*1274 _492_
*1275 _493_
*1276 _494_
*1277 _495_
*1278 _496_
*1279 _497_
*1280 _498_
*1281 _499_
*1282 clkbuf_0_SCK
*1283 clkbuf_0__221_
*1284 clkbuf_1_0__f__221_
*1285 clkbuf_1_1__f__221_
*1286 clkbuf_2_0__f_SCK
*1287 clkbuf_2_1__f_SCK
*1288 clkbuf_2_2__f_SCK
*1289 clkbuf_2_3__f_SCK
*1290 hold1
*1291 hold10
*1292 hold11
*1293 hold12
*1294 hold13
*1295 hold14
*1296 hold15
*1297 hold16
*1298 hold17
*1299 hold18
*1300 hold19
*1301 hold2
*1302 hold20
*1303 hold21
*1304 hold22
*1305 hold23
*1306 hold24
*1307 hold3
*1308 hold4
*1309 hold5
*1310 hold6
*1311 hold7
*1312 hold8
*1313 hold9
*1314 input1
*1315 input10
*1316 input11
*1317 input2
*1318 input3
*1319 input4
*1320 input5
*1321 input6
*1322 input7
*1323 input8
*1324 input9
*1325 max_cap38
*1326 output12
*1327 output13
*1328 output14
*1329 output15
*1330 output16
*1331 output17
*1332 output18
*1333 output19
*1334 output20
*1335 output21
*1336 output22
*1337 output23
*1338 output24
*1339 output25
*1340 output26
*1341 output27
*1342 output28
*1343 output29
*1344 output30
*1345 output31
*1346 output32
*1347 output33
*1348 output34
*1349 output35
*1350 output36
*1351 output37

*PORTS
CSB I
SCK I
SDI I
SDO O
idata[0] I
idata[1] I
idata[2] I
idata[3] I
idata[4] I
idata[5] I
idata[6] I
idata[7] I
oaddr[0] O
oaddr[1] O
oaddr[2] O
oaddr[3] O
oaddr[4] O
oaddr[5] O
oaddr[6] O
oaddr[7] O
odata[0] O
odata[1] O
odata[2] O
odata[3] O
odata[4] O
odata[5] O
odata[6] O
odata[7] O
pass_thru_mgmt O
pass_thru_mgmt_delay O
pass_thru_mgmt_reset O
pass_thru_user O
pass_thru_user_delay O
pass_thru_user_reset O
rdstb O
reset I
sdoenb O
wrstb O

*D_NET *1 0.000889844
*CONN
*P CSB I
*I *1314:A I *D sky130_fd_sc_hd__clkbuf_1
*CAP
1 CSB 0.000444922
2 *1314:A 0.000444922
3 *1314:A *305:24 0
*RES
1 CSB *1314:A 47.3214 
*END

*D_NET *2 0.00958121
*CONN
*P SCK I
*I *1282:A I *D sky130_fd_sc_hd__clkbuf_16
*CAP
1 SCK 0.00474478
2 *1282:A 0
3 *2:17 0.00474478
4 *2:17 *354:33 9.16471e-05
5 *2:17 *355:25 0
6 *2:17 *357:96 0
*RES
1 SCK *2:17 39.9384 
2 *2:17 *1282:A 38 
*END

*D_NET *3 0.00052814
*CONN
*P SDI I
*I *1317:A I *D sky130_fd_sc_hd__buf_2
*CAP
1 SDI 0.00026407
2 *1317:A 0.00026407
*RES
1 SDI *1317:A 49.1767 
*END

*D_NET *4 0.00110928
*CONN
*P SDO O
*I *1326:X O *D sky130_fd_sc_hd__clkbuf_4
*CAP
1 SDO 0.000504548
2 *1326:X 0.000504548
3 SDO *136:103 0.00010018
*RES
1 *1326:X SDO 48.5021 
*END

*D_NET *7 0.00108393
*CONN
*P idata[0] I
*I *1318:A I *D sky130_fd_sc_hd__clkbuf_1
*CAP
1 idata[0] 0.00051113
2 *1318:A 0.00051113
3 *1318:A *283:8 2.93845e-05
4 *1318:A *326:14 3.22879e-05
*RES
1 idata[0] *1318:A 49.0821 
*END

*D_NET *8 0.00127021
*CONN
*P idata[1] I
*I *1319:A I *D sky130_fd_sc_hd__clkbuf_1
*CAP
1 idata[1] 0.000549325
2 *1319:A 0
3 *8:9 0.000549325
4 *8:9 *1041:B2 2.96051e-05
5 *8:9 *136:103 0
6 *8:9 *283:12 0.00014196
*RES
1 idata[1] *8:9 27.035 
2 *8:9 *1319:A 23 
*END

*D_NET *9 0.00123425
*CONN
*P idata[2] I
*I *1320:A I *D sky130_fd_sc_hd__clkbuf_1
*CAP
1 idata[2] 0.000589621
2 *1320:A 0
3 *9:11 0.000589621
4 *9:11 *39:12 0
5 *9:11 *311:16 5.50106e-05
*RES
1 idata[2] *9:11 27.6564 
2 *9:11 *1320:A 23 
*END

*D_NET *10 0.00184936
*CONN
*P idata[3] I
*I *1321:A I *D sky130_fd_sc_hd__clkbuf_1
*CAP
1 idata[3] 0.000896327
2 *1321:A 0
3 *10:9 0.000896327
4 *10:9 *298:16 5.67058e-05
*RES
1 idata[3] *10:9 33.6843 
2 *10:9 *1321:A 23 
*END

*D_NET *11 0.00085858
*CONN
*P idata[4] I
*I *1322:A I *D sky130_fd_sc_hd__clkbuf_1
*CAP
1 idata[4] 0.00042929
2 *1322:A 0.00042929
3 *1322:A *1329:A 0
4 *1322:A *17:8 0
*RES
1 idata[4] *1322:A 47.4664 
*END

*D_NET *12 0.00063186
*CONN
*P idata[5] I
*I *1323:A I *D sky130_fd_sc_hd__buf_1
*CAP
1 idata[5] 0.00031593
2 *1323:A 0
3 *12:13 0.00031593
*RES
1 idata[5] *12:13 27.5853 
2 *12:13 *1323:A 23 
*END

*D_NET *13 0.0010915
*CONN
*P idata[6] I
*I *1324:A I *D sky130_fd_sc_hd__clkbuf_1
*CAP
1 idata[6] 0.000533044
2 *1324:A 0.000533044
3 *1324:A *298:44 0
4 *1324:A *353:8 2.5415e-05
*RES
1 idata[6] *1324:A 49.9582 
*END

*D_NET *14 0.00112469
*CONN
*P idata[7] I
*I *1315:A I *D sky130_fd_sc_hd__clkbuf_1
*CAP
1 idata[7] 0.000506489
2 *1315:A 0.000506489
3 *1315:A *311:16 5.50106e-05
4 *1315:A *326:10 5.67058e-05
*RES
1 idata[7] *1315:A 49.0821 
*END

*D_NET *15 0.00113892
*CONN
*P oaddr[0] O
*I *1327:X O *D sky130_fd_sc_hd__clkbuf_4
*CAP
1 oaddr[0] 0.000533451
2 *1327:X 0.000533451
3 oaddr[0] *286:10 7.20154e-05
*RES
1 *1327:X oaddr[0] 48.7091 
*END

*D_NET *16 0.000507326
*CONN
*P oaddr[1] O
*I *1328:X O *D sky130_fd_sc_hd__clkbuf_4
*CAP
1 oaddr[1] 0.000253663
2 *1328:X 0.000253663
3 oaddr[1] *243:10 0
*RES
1 *1328:X oaddr[1] 47.4311 
*END

*D_NET *17 0.000975347
*CONN
*P oaddr[2] O
*I *1329:X O *D sky130_fd_sc_hd__clkbuf_4
*CAP
1 oaddr[2] 0.000264901
2 *1329:X 0.000222773
3 *17:8 0.000487673
4 *1322:A *17:8 0
*RES
1 *1329:X *17:8 42.5468 
2 *17:8 oaddr[2] 9.01547 
*END

*D_NET *18 0.000922669
*CONN
*P oaddr[3] O
*I *1330:X O *D sky130_fd_sc_hd__clkbuf_4
*CAP
1 oaddr[3] 0.000145422
2 *1330:X 0.000315912
3 *18:10 0.000461334
4 *18:10 *288:10 0
5 *18:10 *288:12 0
*RES
1 *1330:X *18:10 42.7332 
2 *18:10 oaddr[3] 8.4144 
*END

*D_NET *19 0.00132345
*CONN
*P oaddr[4] O
*I *1331:X O *D sky130_fd_sc_hd__buf_2
*CAP
1 oaddr[4] 0.000650054
2 *1331:X 0.000650054
3 oaddr[4] *132:93 0
4 oaddr[4] *298:44 2.33476e-05
*RES
1 *1331:X oaddr[4] 47.8517 
*END

*D_NET *20 0.00250376
*CONN
*P oaddr[5] O
*I *1332:X O *D sky130_fd_sc_hd__clkbuf_4
*CAP
1 oaddr[5] 0.000372805
2 *1332:X 0.000773134
3 *20:10 0.00114594
4 *20:10 *1332:A 2.4754e-05
5 *20:10 *1340:A 0.000187129
*RES
1 *1332:X *20:10 37.1271 
2 *20:10 oaddr[5] 23.3479 
*END

*D_NET *21 0.00196209
*CONN
*P oaddr[6] O
*I *1333:X O *D sky130_fd_sc_hd__clkbuf_4
*CAP
1 oaddr[6] 0.000542453
2 *1333:X 0.000438591
3 *21:8 0.000981043
*RES
1 *1333:X *21:8 45.7679 
2 *21:8 oaddr[6] 12.2214 
*END

*D_NET *22 0.000964612
*CONN
*P oaddr[7] O
*I *1334:X O *D sky130_fd_sc_hd__clkbuf_4
*CAP
1 oaddr[7] 0.000482306
2 *1334:X 0.000482306
3 oaddr[7] *291:8 0
*RES
1 *1334:X oaddr[7] 48.9443 
*END

*D_NET *23 0.000796879
*CONN
*P odata[0] O
*I *1335:X O *D sky130_fd_sc_hd__clkbuf_4
*CAP
1 odata[0] 0.000398439
2 *1335:X 0.000398439
*RES
1 *1335:X odata[0] 46.7621 
*END

*D_NET *24 0.000901969
*CONN
*P odata[1] O
*I *1336:X O *D sky130_fd_sc_hd__clkbuf_4
*CAP
1 odata[1] 0.000437235
2 *1336:X 0.000437235
3 odata[1] *288:12 2.74987e-05
*RES
1 *1336:X odata[1] 48.1384 
*END

*D_NET *25 0.00137067
*CONN
*P odata[2] O
*I *1337:X O *D sky130_fd_sc_hd__clkbuf_4
*CAP
1 odata[2] 0.000403134
2 *1337:X 0.000140155
3 *25:8 0.00054329
4 *25:8 *1064:A0 0.00014196
5 *25:8 *1064:S 5.70419e-05
6 *25:8 *117:10 4.97789e-05
7 *25:8 *299:26 3.53115e-05
*RES
1 *1337:X *25:8 41.9564 
2 *25:8 odata[2] 8.34786 
*END

*D_NET *26 0.000987916
*CONN
*P odata[3] O
*I *1338:X O *D sky130_fd_sc_hd__clkbuf_4
*CAP
1 odata[3] 0.00049273
2 *1338:X 0.00049273
3 odata[3] *285:22 2.45549e-06
*RES
1 *1338:X odata[3] 48.0257 
*END

*D_NET *27 0.000931711
*CONN
*P odata[4] O
*I *1339:X O *D sky130_fd_sc_hd__buf_2
*CAP
1 odata[4] 0.000200409
2 *1339:X 0.000265446
3 *27:12 0.000465855
4 *27:12 *288:12 0
*RES
1 *1339:X *27:12 42.0496 
2 *27:12 odata[4] 8.50027 
*END

*D_NET *28 0.000746105
*CONN
*P odata[5] O
*I *1340:X O *D sky130_fd_sc_hd__clkbuf_4
*CAP
1 odata[5] 0.000373053
2 *1340:X 0.000373053
*RES
1 *1340:X odata[5] 45.9957 
*END

*D_NET *29 0.00223711
*CONN
*P odata[6] O
*I *1341:X O *D sky130_fd_sc_hd__clkbuf_4
*CAP
1 odata[6] 0.000699297
2 *1341:X 0.000220739
3 *29:8 0.000920036
4 odata[6] *165:34 0
5 odata[6] *167:10 8.51329e-05
6 odata[6] *265:37 0.000114083
7 *29:8 *1060:A0 1.32939e-05
8 *29:8 *1060:A1 0.000184527
*RES
1 *1341:X *29:8 41.9564 
2 *29:8 odata[6] 13.9821 
*END

*D_NET *30 0.000701561
*CONN
*P odata[7] O
*I *1342:X O *D sky130_fd_sc_hd__clkbuf_4
*CAP
1 odata[7] 9.75781e-05
2 *1342:X 0.000253202
3 *30:10 0.00035078
4 *30:10 *294:14 0
*RES
1 *1342:X *30:10 42.6089 
2 *30:10 odata[7] 8.32853 
*END

*D_NET *31 0.000836268
*CONN
*P pass_thru_mgmt O
*I *1343:X O *D sky130_fd_sc_hd__buf_2
*CAP
1 pass_thru_mgmt 0.000405463
2 *1343:X 0.000405463
3 pass_thru_mgmt *288:12 2.5343e-05
*RES
1 *1343:X pass_thru_mgmt 47.2507 
*END

*D_NET *32 0.000740866
*CONN
*P pass_thru_mgmt_delay O
*I *1344:X O *D sky130_fd_sc_hd__clkbuf_4
*CAP
1 pass_thru_mgmt_delay 0.000370433
2 *1344:X 0.000370433
*RES
1 *1344:X pass_thru_mgmt_delay 45.9957 
*END

*D_NET *33 0.00100244
*CONN
*P pass_thru_mgmt_reset O
*I *1345:X O *D sky130_fd_sc_hd__clkbuf_4
*CAP
1 pass_thru_mgmt_reset 0.000501218
2 *1345:X 0.000501218
3 pass_thru_mgmt_reset pass_thru_user 0
*RES
1 *1345:X pass_thru_mgmt_reset 48.4905 
*END

*D_NET *34 0.00233598
*CONN
*P pass_thru_user O
*I *1346:X O *D sky130_fd_sc_hd__clkbuf_4
*CAP
1 pass_thru_user 0.000813945
2 *1346:X 0.000354045
3 *34:8 0.00116799
4 pass_thru_mgmt_reset pass_thru_user 0
*RES
1 *1346:X *34:8 43.3857 
2 *34:8 pass_thru_user 17.8557 
*END

*D_NET *35 0.00106642
*CONN
*P pass_thru_user_delay O
*I *1347:X O *D sky130_fd_sc_hd__clkbuf_4
*CAP
1 pass_thru_user_delay 0.00050486
2 *1347:X 0.00050486
3 pass_thru_user_delay *283:8 5.67058e-05
*RES
1 *1347:X pass_thru_user_delay 48.6471 
*END

*D_NET *36 0.00159574
*CONN
*P pass_thru_user_reset O
*I *1348:X O *D sky130_fd_sc_hd__clkbuf_4
*CAP
1 pass_thru_user_reset 0.00043927
2 *1348:X 0.000199822
3 *36:8 0.000639092
4 *36:8 *283:8 0.000317553
*RES
1 *1348:X *36:8 41.48 
2 *36:8 pass_thru_user_reset 9.40429 
*END

*D_NET *37 0.000740866
*CONN
*P rdstb O
*I *1349:X O *D sky130_fd_sc_hd__clkbuf_4
*CAP
1 rdstb 0.000370433
2 *1349:X 0.000370433
*RES
1 *1349:X rdstb 45.9957 
*END

*D_NET *38 0.000528197
*CONN
*P reset I
*I *1316:A I *D sky130_fd_sc_hd__clkbuf_1
*CAP
1 reset 0.000264098
2 *1316:A 0.000264098
*RES
1 reset *1316:A 49.1767 
*END

*D_NET *39 0.0010712
*CONN
*P sdoenb O
*I *1350:X O *D sky130_fd_sc_hd__buf_6
*CAP
1 sdoenb 0.000203319
2 *1350:X 0.000332282
3 *39:12 0.000535602
4 *9:11 *39:12 0
*RES
1 *1350:X *39:12 49.7523 
2 *39:12 sdoenb 0.808267 
*END

*D_NET *40 0.000929417
*CONN
*P wrstb O
*I *1351:X O *D sky130_fd_sc_hd__buf_2
*CAP
1 wrstb 0.000427398
2 *1351:X 0.000427398
3 wrstb *288:12 7.46212e-05
*RES
1 *1351:X wrstb 47.955 
*END

*D_NET *41 0.00115093
*CONN
*I *1265:D I *D sky130_fd_sc_hd__dfstp_1
*I *1167:X O *D sky130_fd_sc_hd__o21a_1
*CAP
1 *1265:D 4.69071e-05
2 *1167:X 0.000370404
3 *41:10 0.000417311
4 *1265:D *134:35 5.41288e-05
5 *41:10 *1035:B 0
6 *41:10 *1167:B1 0
7 *41:10 *132:128 5.61311e-05
8 *41:10 *134:25 0
9 *41:10 *264:12 0.000136486
10 *41:10 *359:119 6.95594e-05
*RES
1 *1167:X *41:10 44.7736 
2 *41:10 *1265:D 39.0979 
*END

*D_NET *42 0.00282779
*CONN
*I *1268:D I *D sky130_fd_sc_hd__dfstp_2
*I *1165:X O *D sky130_fd_sc_hd__a2bb2o_1
*CAP
1 *1268:D 0.000376761
2 *1165:X 0.000659874
3 *42:10 0.00103663
4 *1268:D *1059:A 5.50106e-05
5 *1268:D *1196:A 5.67058e-05
6 *1268:D *250:75 0.000224733
7 *1268:D *357:6 0.000139346
8 *42:10 *1111:B1 2.93335e-05
9 *42:10 *1165:A2_N 3.7122e-06
10 *42:10 *293:44 0.000166522
11 *42:10 *360:51 7.91596e-05
*RES
1 *1165:X *42:10 48.9786 
2 *42:10 *1268:D 46.7207 
*END

*D_NET *43 0.00140152
*CONN
*I *1312:A I *D sky130_fd_sc_hd__dlygate4sd3_1
*I *1159:X O *D sky130_fd_sc_hd__a41o_1
*CAP
1 *1312:A 7.12675e-05
2 *1159:X 0.000272538
3 *43:10 0.000343805
4 *1312:A *80:12 0.000101764
5 *43:10 *80:12 0.000116314
6 *43:10 *240:8 0.000141052
7 *43:10 *332:8 0
8 *43:10 *355:48 0.000354778
*RES
1 *1159:X *43:10 44.2971 
2 *43:10 *1312:A 39.5743 
*END

*D_NET *44 0.000475472
*CONN
*I *1270:D I *D sky130_fd_sc_hd__dfrtp_4
*I *1164:X O *D sky130_fd_sc_hd__a22o_1
*CAP
1 *1270:D 0.000160179
2 *1164:X 0.000160179
3 *1270:D *237:29 0.000139346
4 *1270:D *247:22 1.5769e-05
*RES
1 *1164:X *1270:D 48.5479 
*END

*D_NET *45 0.000756698
*CONN
*I *1271:D I *D sky130_fd_sc_hd__dfrtp_1
*I *1161:Y O *D sky130_fd_sc_hd__inv_2
*CAP
1 *1271:D 0.000230995
2 *1161:Y 7.52992e-05
3 *45:8 0.000306294
4 *45:8 *201:12 0
5 *45:8 *293:44 0.00014411
*RES
1 *1161:Y *45:8 39.9057 
2 *45:8 *1271:D 41.9564 
*END

*D_NET *46 0.000794491
*CONN
*I *1292:A I *D sky130_fd_sc_hd__dlygate4sd3_1
*I *1158:X O *D sky130_fd_sc_hd__a31o_1
*CAP
1 *1292:A 0.000132906
2 *1158:X 0.000132906
3 *1292:A *1158:A3 2.02517e-05
4 *1292:A *335:10 0.000108826
5 *1292:A *336:10 9.41704e-05
6 *1292:A *352:20 0.000305431
*RES
1 *1158:X *1292:A 49.9771 
*END

*D_NET *47 0.000384274
*CONN
*I *1236:RESET_B I *D sky130_fd_sc_hd__dfrtp_1
*I *1186:Y O *D sky130_fd_sc_hd__nor2_1
*CAP
1 *1236:RESET_B 0
2 *1186:Y 7.42803e-05
3 *47:8 7.42803e-05
4 *47:8 *193:50 2.84809e-05
5 *47:8 *262:14 6.53445e-05
6 *47:8 *268:14 0.000141888
*RES
1 *1186:Y *47:8 40.61 
2 *47:8 *1236:RESET_B 15 
*END

*D_NET *48 0.00116172
*CONN
*I *1237:RESET_B I *D sky130_fd_sc_hd__dfrtp_1
*I *1187:Y O *D sky130_fd_sc_hd__nor2_1
*CAP
1 *1237:RESET_B 0
2 *1187:Y 0.000401226
3 *48:10 0.000401226
4 *48:10 *244:6 0.000359271
5 *48:10 *246:59 0
*RES
1 *1187:Y *48:10 44.5664 
2 *48:10 *1237:RESET_B 15 
*END

*D_NET *49 0.000682496
*CONN
*I *1238:RESET_B I *D sky130_fd_sc_hd__dfrtp_1
*I *1188:Y O *D sky130_fd_sc_hd__nor2_1
*CAP
1 *1238:RESET_B 5.8372e-05
2 *1188:Y 0.000171164
3 *49:10 0.000229536
4 *1238:RESET_B *268:16 8.79516e-05
5 *49:10 *246:24 1.01436e-05
6 *49:10 *247:22 1.34995e-05
7 *49:10 *247:26 7.51453e-06
8 *49:10 *305:16 5.94125e-05
9 *49:10 *359:87 4.49021e-05
*RES
1 *1188:Y *49:10 40.8793 
2 *49:10 *1238:RESET_B 16.0254 
*END

*D_NET *50 0.00112813
*CONN
*I *1239:RESET_B I *D sky130_fd_sc_hd__dfrtp_1
*I *1189:Y O *D sky130_fd_sc_hd__nor2_1
*CAP
1 *1239:RESET_B 0
2 *1189:Y 0.000450852
3 *50:10 0.000450852
4 *50:10 *134:60 3.68205e-05
5 *50:10 *242:6 9.01795e-05
6 *50:10 *246:59 0
7 *50:10 *277:18 9.94233e-05
*RES
1 *1189:Y *50:10 44.815 
2 *50:10 *1239:RESET_B 15 
*END

*D_NET *51 0.000386104
*CONN
*I *1240:RESET_B I *D sky130_fd_sc_hd__dfrtp_1
*I *1190:Y O *D sky130_fd_sc_hd__nor2_1
*CAP
1 *1240:RESET_B 3.53968e-05
2 *1190:Y 0.000124153
3 *51:8 0.00015955
4 *1240:RESET_B *308:8 1.19087e-05
5 *51:8 *245:12 5.50955e-05
6 *51:8 *311:12 0
*RES
1 *1190:Y *51:8 40.61 
2 *51:8 *1240:RESET_B 15.5489 
*END

*D_NET *52 0.00130783
*CONN
*I *1241:RESET_B I *D sky130_fd_sc_hd__dfrtp_4
*I *1191:Y O *D sky130_fd_sc_hd__nor2_1
*CAP
1 *1241:RESET_B 0.000374092
2 *1191:Y 0.000374092
3 *1241:RESET_B *253:10 1.72202e-05
4 *1241:RESET_B *253:58 0.000275035
5 *1241:RESET_B *267:85 0.000267393
*RES
1 *1191:Y *1241:RESET_B 31.8139 
*END

*D_NET *53 0.000482509
*CONN
*I *1242:RESET_B I *D sky130_fd_sc_hd__dfrtp_4
*I *1192:Y O *D sky130_fd_sc_hd__nor2_1
*CAP
1 *1242:RESET_B 0
2 *1192:Y 0.000189787
3 *53:10 0.000189787
4 *53:10 *254:12 4.58924e-05
5 *53:10 *267:79 5.70419e-05
*RES
1 *1192:Y *53:10 41.7079 
2 *53:10 *1242:RESET_B 15 
*END

*D_NET *54 0.000421492
*CONN
*I *1243:RESET_B I *D sky130_fd_sc_hd__dfrtp_4
*I *1193:Y O *D sky130_fd_sc_hd__nor2_1
*CAP
1 *1243:RESET_B 0
2 *1193:Y 0.000160656
3 *54:10 0.000160656
4 *54:10 *255:16 0.00010018
*RES
1 *1193:Y *54:10 40.6514 
2 *54:10 *1243:RESET_B 15 
*END

*D_NET *55 0.00035119
*CONN
*I *1244:RESET_B I *D sky130_fd_sc_hd__dfrtp_2
*I *1194:Y O *D sky130_fd_sc_hd__nor2_1
*CAP
1 *1244:RESET_B 0
2 *1194:Y 9.12226e-05
3 *55:8 9.12226e-05
4 *55:8 *230:23 0
5 *55:8 *247:91 0.000168744
*RES
1 *1194:Y *55:8 40.2579 
2 *55:8 *1244:RESET_B 15 
*END

*D_NET *56 0.000710509
*CONN
*I *1245:RESET_B I *D sky130_fd_sc_hd__dfrtp_4
*I *1195:Y O *D sky130_fd_sc_hd__nor2_1
*CAP
1 *1245:RESET_B 0
2 *1195:Y 0.000140806
3 *56:10 0.000140806
4 *56:10 *192:48 9.58714e-05
5 *56:10 *203:18 0.000166513
6 *56:10 *247:64 0.000166513
*RES
1 *1195:Y *56:10 41.3557 
2 *56:10 *1245:RESET_B 15 
*END

*D_NET *57 0.000381373
*CONN
*I *1246:RESET_B I *D sky130_fd_sc_hd__dfrtp_2
*I *1198:Y O *D sky130_fd_sc_hd__nor2_1
*CAP
1 *1246:RESET_B 0
2 *1198:Y 0.000174543
3 *57:12 0.000174543
4 *57:12 *1198:B 3.22879e-05
5 *57:12 *186:40 0
*RES
1 *1198:Y *57:12 41.1486 
2 *57:12 *1246:RESET_B 15 
*END

*D_NET *58 0.00074498
*CONN
*I *1247:RESET_B I *D sky130_fd_sc_hd__dfrtp_1
*I *1199:Y O *D sky130_fd_sc_hd__nor2_1
*CAP
1 *1247:RESET_B 0
2 *1199:Y 0.000264935
3 *58:10 0.000264935
4 *58:10 *131:10 0.000131009
5 *58:10 *198:18 8.41012e-05
*RES
1 *1199:Y *58:10 42.785 
2 *58:10 *1247:RESET_B 15 
*END

*D_NET *59 0.000368289
*CONN
*I *1248:RESET_B I *D sky130_fd_sc_hd__dfrtp_1
*I *1200:Y O *D sky130_fd_sc_hd__nor2_1
*CAP
1 *1248:RESET_B 0.000122716
2 *1200:Y 0.000122716
3 *1248:RESET_B *265:73 0.000122858
*RES
1 *1200:Y *1248:RESET_B 25.4546 
*END

*D_NET *60 0.000516476
*CONN
*I *1249:RESET_B I *D sky130_fd_sc_hd__dfrtp_1
*I *1201:Y O *D sky130_fd_sc_hd__nor2_1
*CAP
1 *1249:RESET_B 0
2 *1201:Y 0.000116892
3 *60:10 0.000116892
4 *60:10 *1201:B 2.30292e-05
5 *60:10 *248:73 6.53445e-05
6 *60:10 *270:8 0.000194318
*RES
1 *1201:Y *60:10 41.2314 
2 *60:10 *1249:RESET_B 15 
*END

*D_NET *61 0.000673736
*CONN
*I *1250:RESET_B I *D sky130_fd_sc_hd__dfrtp_4
*I *1202:Y O *D sky130_fd_sc_hd__nor2_1
*CAP
1 *1250:RESET_B 0
2 *1202:Y 0.000254677
3 *61:10 0.000254677
4 *61:10 *249:89 1.24376e-05
5 *61:10 *249:100 6.9805e-05
6 *61:10 *249:111 1.5769e-05
7 *61:10 *271:10 6.63698e-05
8 *61:10 *310:20 0
*RES
1 *1202:Y *61:10 42.6607 
2 *61:10 *1250:RESET_B 15 
*END

*D_NET *62 0.000386896
*CONN
*I *1251:RESET_B I *D sky130_fd_sc_hd__dfrtp_4
*I *1203:Y O *D sky130_fd_sc_hd__nor2_1
*CAP
1 *1251:RESET_B 0
2 *1203:Y 0.00015866
3 *62:8 0.00015866
4 *62:8 *271:10 0
5 *62:8 *310:20 6.95768e-05
*RES
1 *1203:Y *62:8 40.9621 
2 *62:8 *1251:RESET_B 15 
*END

*D_NET *63 0.000318863
*CONN
*I *1252:RESET_B I *D sky130_fd_sc_hd__dfrtp_1
*I *1204:Y O *D sky130_fd_sc_hd__nor2_1
*CAP
1 *1252:RESET_B 0
2 *1204:Y 0.000134513
3 *63:8 0.000134513
4 *63:8 *1205:B 4.98364e-05
5 *63:8 *251:80 0
*RES
1 *1204:Y *63:8 40.61 
2 *63:8 *1252:RESET_B 15 
*END

*D_NET *64 0.000291014
*CONN
*I *1253:RESET_B I *D sky130_fd_sc_hd__dfrtp_1
*I *1205:Y O *D sky130_fd_sc_hd__nor2_1
*CAP
1 *1253:RESET_B 0
2 *1205:Y 0.000145507
3 *64:8 0.000145507
4 *64:8 *154:14 0
*RES
1 *1205:Y *64:8 40.61 
2 *64:8 *1253:RESET_B 15 
*END

*D_NET *65 0.000283279
*CONN
*I *1254:RESET_B I *D sky130_fd_sc_hd__dfrtp_1
*I *1206:Y O *D sky130_fd_sc_hd__nor2_1
*CAP
1 *1254:RESET_B 0
2 *1206:Y 0.000141639
3 *65:8 0.000141639
4 *65:8 *112:10 0
5 *65:8 *251:53 0
6 *65:8 *265:22 0
*RES
1 *1206:Y *65:8 40.61 
2 *65:8 *1254:RESET_B 15 
*END

*D_NET *66 0.000516194
*CONN
*I *1255:RESET_B I *D sky130_fd_sc_hd__dfrtp_2
*I *1207:Y O *D sky130_fd_sc_hd__nor2_1
*CAP
1 *1255:RESET_B 0
2 *1207:Y 0.000173526
3 *66:8 0.000173526
4 *66:8 *248:20 0.000169142
5 *66:8 *249:29 0
*RES
1 *1207:Y *66:8 42.3707 
2 *66:8 *1255:RESET_B 15 
*END

*D_NET *67 0.000611358
*CONN
*I *1256:RESET_B I *D sky130_fd_sc_hd__dfrtp_1
*I *1210:Y O *D sky130_fd_sc_hd__nor2_1
*CAP
1 *1256:RESET_B 0
2 *1210:Y 0.000233851
3 *67:10 0.000233851
4 *67:10 *300:16 0.000143655
*RES
1 *1210:Y *67:10 42.1843 
2 *67:10 *1256:RESET_B 15 
*END

*D_NET *68 0.000699679
*CONN
*I *1257:RESET_B I *D sky130_fd_sc_hd__dfrtp_1
*I *1211:Y O *D sky130_fd_sc_hd__nor2_1
*CAP
1 *1257:RESET_B 0
2 *1211:Y 0.000213244
3 *68:10 0.000213244
4 *68:10 *250:146 0.000273191
*RES
1 *1211:Y *68:10 42.1843 
2 *68:10 *1257:RESET_B 15 
*END

*D_NET *69 0.000398177
*CONN
*I *1258:RESET_B I *D sky130_fd_sc_hd__dfrtp_1
*I *1212:Y O *D sky130_fd_sc_hd__nor2_1
*CAP
1 *1258:RESET_B 0
2 *1212:Y 0.000100814
3 *69:8 0.000100814
4 *69:8 *250:103 0.000196549
5 *69:8 *266:120 0
*RES
1 *1212:Y *69:8 40.61 
2 *69:8 *1258:RESET_B 15 
*END

*D_NET *70 0.000756273
*CONN
*I *1259:RESET_B I *D sky130_fd_sc_hd__dfrtp_1
*I *1213:Y O *D sky130_fd_sc_hd__nor2_1
*CAP
1 *1259:RESET_B 0
2 *1213:Y 0.000131617
3 *70:10 0.000131617
4 *70:10 *1213:B 4.2573e-05
5 *70:10 *251:114 5.3304e-05
6 *70:10 *251:122 0.00019746
7 *70:10 *348:14 0.000199701
*RES
1 *1213:Y *70:10 41.7079 
2 *70:10 *1259:RESET_B 15 
*END

*D_NET *71 0.000408253
*CONN
*I *1260:RESET_B I *D sky130_fd_sc_hd__dfrtp_1
*I *1214:Y O *D sky130_fd_sc_hd__nor2_1
*CAP
1 *1260:RESET_B 0
2 *1214:Y 0.000121163
3 *71:10 0.000121163
4 *71:10 *250:152 0.000110922
5 *71:10 *298:16 5.50049e-05
6 *71:10 *313:41 0
*RES
1 *1214:Y *71:10 40.175 
2 *71:10 *1260:RESET_B 15 
*END

*D_NET *72 0.000307361
*CONN
*I *1261:RESET_B I *D sky130_fd_sc_hd__dfrtp_1
*I *1215:Y O *D sky130_fd_sc_hd__nor2_1
*CAP
1 *1261:RESET_B 0
2 *1215:Y 0.00014394
3 *72:10 0.00014394
4 *72:10 *1215:A 1.94812e-05
*RES
1 *1215:Y *72:10 40.175 
2 *72:10 *1261:RESET_B 15 
*END

*D_NET *73 0.00143994
*CONN
*I *1262:RESET_B I *D sky130_fd_sc_hd__dfrtp_1
*I *1216:Y O *D sky130_fd_sc_hd__nor2_1
*CAP
1 *1262:RESET_B 0.000102578
2 *1216:Y 0.000220121
3 *73:10 0.000322699
4 *1262:RESET_B *265:26 0.000220162
5 *73:10 *1305:A 1.47563e-05
6 *73:10 *250:36 0.000195238
7 *73:10 *295:8 8.85189e-05
8 *73:10 *300:16 0.000228001
9 *73:10 *301:23 4.7869e-05
*RES
1 *1216:Y *73:10 43.1371 
2 *73:10 *1262:RESET_B 17.4546 
*END

*D_NET *74 0.0011168
*CONN
*I *1263:RESET_B I *D sky130_fd_sc_hd__dfrtp_1
*I *1217:Y O *D sky130_fd_sc_hd__nor2_1
*CAP
1 *1263:RESET_B 0.000355992
2 *1217:Y 0.000355992
3 *1263:RESET_B *1300:A 0.000313255
4 *1263:RESET_B *250:18 5.56356e-05
5 *1263:RESET_B *250:36 3.59255e-05
*RES
1 *1217:Y *1263:RESET_B 29.7632 
*END

*D_NET *75 0.000549986
*CONN
*I *1264:RESET_B I *D sky130_fd_sc_hd__dfrtp_4
*I *1218:Y O *D sky130_fd_sc_hd__nor2_1
*CAP
1 *1264:RESET_B 0
2 *1218:Y 0.000161654
3 *75:10 0.000161654
4 *75:10 *187:14 6.28488e-05
5 *75:10 *250:99 9.84851e-05
6 *75:10 *305:24 6.53445e-05
*RES
1 *1218:Y *75:10 41.7079 
2 *75:10 *1264:RESET_B 15 
*END

*D_NET *76 0.000428294
*CONN
*I *1265:SET_B I *D sky130_fd_sc_hd__dfstp_1
*I *1053:Y O *D sky130_fd_sc_hd__nor2_1
*CAP
1 *1265:SET_B 0
2 *1053:Y 0.000152609
3 *76:10 0.000152609
4 *76:10 *132:143 6.63698e-05
5 *76:10 *242:6 5.67058e-05
6 *76:10 *355:48 0
*RES
1 *1053:Y *76:10 41.2314 
2 *76:10 *1265:SET_B 15 
*END

*D_NET *77 0.0018085
*CONN
*I *1266:RESET_B I *D sky130_fd_sc_hd__dfrtp_1
*I *1221:Y O *D sky130_fd_sc_hd__nor2_1
*CAP
1 *1266:RESET_B 2.44876e-05
2 *1221:Y 0.000338859
3 *77:8 0.000363346
4 *1266:RESET_B *154:24 4.70852e-05
5 *1266:RESET_B *193:14 2.33744e-05
6 *77:8 *1165:B1 2.71024e-06
7 *77:8 *1165:B2 0.000140949
8 *77:8 *1299:A 0.000166504
9 *77:8 *163:22 0.000200692
10 *77:8 *191:31 0
11 *77:8 *250:83 4.08537e-05
12 *77:8 *354:33 0.000459638
*RES
1 *1221:Y *77:8 48.005 
2 *77:8 *1266:RESET_B 15.5489 
*END

*D_NET *78 0.000575032
*CONN
*I *1267:RESET_B I *D sky130_fd_sc_hd__dfrtp_1
*I *1042:Y O *D sky130_fd_sc_hd__nor2_1
*CAP
1 *1267:RESET_B 0
2 *1042:Y 0.00021565
3 *78:8 0.00021565
4 *78:8 *122:10 0
5 *78:8 *263:47 0.000143733
*RES
1 *1042:Y *78:8 43.4271 
2 *78:8 *1267:RESET_B 15 
*END

*D_NET *79 0.000325983
*CONN
*I *1268:SET_B I *D sky130_fd_sc_hd__dfstp_2
*I *1223:Y O *D sky130_fd_sc_hd__nor2_1
*CAP
1 *1268:SET_B 0
2 *1223:Y 0.000113558
3 *79:8 0.000113558
4 *79:8 *1208:A 0
5 *79:8 *131:16 0
6 *79:8 *133:32 9.88678e-05
*RES
1 *1223:Y *79:8 40.61 
2 *79:8 *1268:SET_B 15 
*END

*D_NET *80 0.000732252
*CONN
*I *1269:RESET_B I *D sky130_fd_sc_hd__dfrtp_1
*I *1224:Y O *D sky130_fd_sc_hd__nor2_1
*CAP
1 *1269:RESET_B 0
2 *1224:Y 0.000240984
3 *80:12 0.000240984
4 *80:12 *1224:A 0
5 *80:12 *1224:B 3.22051e-05
6 *80:12 *134:14 0
7 *1312:A *80:12 0.000101764
8 *43:10 *80:12 0.000116314
*RES
1 *1224:Y *80:12 42.5779 
2 *80:12 *1269:RESET_B 15 
*END

*D_NET *81 0.000656152
*CONN
*I *1270:RESET_B I *D sky130_fd_sc_hd__dfrtp_4
*I *1225:Y O *D sky130_fd_sc_hd__nor2_1
*CAP
1 *1270:RESET_B 0
2 *1225:Y 0.000122227
3 *81:10 0.000122227
4 *81:10 *131:110 2.93845e-05
5 *81:10 *163:22 0.000191157
6 *81:10 *355:25 0.000191157
*RES
1 *1225:Y *81:10 41.2314 
2 *81:10 *1270:RESET_B 15 
*END

*D_NET *82 0.00040311
*CONN
*I *1271:RESET_B I *D sky130_fd_sc_hd__dfrtp_1
*I *1226:Y O *D sky130_fd_sc_hd__nor2_1
*CAP
1 *1271:RESET_B 0
2 *1226:Y 0.000109641
3 *82:12 0.000109641
4 *82:12 *131:76 3.81391e-05
5 *82:12 *133:66 0.000116314
6 *82:12 *186:22 2.93747e-05
*RES
1 *1226:Y *82:12 40.6721 
2 *82:12 *1271:RESET_B 15 
*END

*D_NET *83 0.00196602
*CONN
*I *1272:RESET_B I *D sky130_fd_sc_hd__dfrtp_1
*I *1227:Y O *D sky130_fd_sc_hd__nor2_1
*CAP
1 *1272:RESET_B 0
2 *1227:Y 0.000334587
3 *83:10 0.000334587
4 *83:10 *131:127 0.000117244
5 *83:10 *132:128 0.000264334
6 *83:10 *241:24 0.000180218
7 *83:10 *268:31 6.48049e-05
8 *83:10 *358:25 9.4713e-05
9 *83:10 *359:119 0.000575531
*RES
1 *1227:Y *83:10 48.9993 
2 *83:10 *1272:RESET_B 15 
*END

*D_NET *84 0.000467781
*CONN
*I *1273:RESET_B I *D sky130_fd_sc_hd__dfrtp_1
*I *1039:Y O *D sky130_fd_sc_hd__nor2_1
*CAP
1 *1273:RESET_B 6.42213e-05
2 *1039:Y 0.000137328
3 *84:8 0.000201549
4 *1273:RESET_B *1036:A1 1.22775e-06
5 *1273:RESET_B *275:6 2.26011e-05
6 *84:8 *1013:S 0
7 *84:8 *136:95 0
8 *84:8 *275:21 4.08537e-05
*RES
1 *1039:Y *84:8 40.61 
2 *84:8 *1273:RESET_B 16.0254 
*END

*D_NET *85 0.000184503
*CONN
*I *1274:RESET_B I *D sky130_fd_sc_hd__dfrtp_1
*I *1035:Y O *D sky130_fd_sc_hd__nor2_1
*CAP
1 *1274:RESET_B 0
2 *1035:Y 9.22516e-05
3 *85:8 9.22516e-05
4 *85:8 *264:87 0
*RES
1 *1035:Y *85:8 39.5536 
2 *85:8 *1274:RESET_B 15 
*END

*D_NET *86 0.000347975
*CONN
*I *1275:RESET_B I *D sky130_fd_sc_hd__dfrtp_1
*I *1031:Y O *D sky130_fd_sc_hd__nor2_1
*CAP
1 *1275:RESET_B 0.00013382
2 *1031:Y 0.00013382
3 *1275:RESET_B *134:35 4.81296e-05
4 *1275:RESET_B *134:48 3.22051e-05
*RES
1 *1031:Y *1275:RESET_B 25.4546 
*END

*D_NET *87 0.00182701
*CONN
*I *1276:RESET_B I *D sky130_fd_sc_hd__dfrtp_1
*I *1027:Y O *D sky130_fd_sc_hd__nor2_1
*CAP
1 *1276:RESET_B 0.000646634
2 *1027:Y 0.000100003
3 *87:8 0.000746637
4 *1276:RESET_B *1024:A1 0
5 *1276:RESET_B *1231:A 0
6 *1276:RESET_B *1296:A 0
7 *1276:RESET_B *127:10 0
8 *1276:RESET_B *138:32 0
9 *1276:RESET_B *145:8 0
10 *1276:RESET_B *277:28 0
11 *1276:RESET_B *312:8 0.000168754
12 *1276:RESET_B *320:8 0
13 *1276:RESET_B *321:10 2.04774e-05
14 *1276:RESET_B *334:8 0
15 *87:8 *132:31 0.000144501
*RES
1 *1027:Y *87:8 39.5743 
2 *87:8 *1276:RESET_B 27.8221 
*END

*D_NET *88 0.000915948
*CONN
*I *1277:RESET_B I *D sky130_fd_sc_hd__dfrtp_1
*I *1023:Y O *D sky130_fd_sc_hd__nor2_1
*CAP
1 *1277:RESET_B 0
2 *1023:Y 0.00022306
3 *88:10 0.00022306
4 *88:10 *134:76 2.30292e-05
5 *88:10 *134:95 1.40958e-05
6 *88:10 *277:28 0.000124443
7 *88:10 *303:33 0.000108559
8 *88:10 *347:8 0.000199701
*RES
1 *1023:Y *88:10 44.525 
2 *88:10 *1277:RESET_B 15 
*END

*D_NET *89 0.000930171
*CONN
*I *1278:RESET_B I *D sky130_fd_sc_hd__dfrtp_1
*I *1019:Y O *D sky130_fd_sc_hd__nor2_1
*CAP
1 *1278:RESET_B 0.000177636
2 *1019:Y 7.53632e-05
3 *89:8 0.000252999
4 *1278:RESET_B *240:16 4.67269e-05
5 *1278:RESET_B *241:36 9.97659e-05
6 *89:8 *136:89 0.000168754
7 *89:8 *280:10 8.62876e-05
8 *89:8 *298:44 2.26385e-05
*RES
1 *1019:Y *89:8 40.2579 
2 *89:8 *1278:RESET_B 18.4282 
*END

*D_NET *90 0.000414729
*CONN
*I *1279:RESET_B I *D sky130_fd_sc_hd__dfrtp_1
*I *1015:Y O *D sky130_fd_sc_hd__nor2_1
*CAP
1 *1279:RESET_B 0
2 *1015:Y 0.00011067
3 *90:8 0.00011067
4 *90:8 *136:95 0.000193388
5 *90:8 *244:10 0
*RES
1 *1015:Y *90:8 40.61 
2 *90:8 *1279:RESET_B 15 
*END

*D_NET *91 0.000189645
*CONN
*I *1280:RESET_B I *D sky130_fd_sc_hd__dfrtp_1
*I *1008:Y O *D sky130_fd_sc_hd__nor2_1
*CAP
1 *1280:RESET_B 0
2 *1008:Y 8.21202e-05
3 *91:8 8.21202e-05
4 *91:8 *1039:A 2.54046e-05
5 *91:8 *281:25 0
6 *91:8 *298:44 0
*RES
1 *1008:Y *91:8 39.5536 
2 *91:8 *1280:RESET_B 15 
*END

*D_NET *92 0.00109401
*CONN
*I *1236:D I *D sky130_fd_sc_hd__dfrtp_1
*I *1157:X O *D sky130_fd_sc_hd__a22o_1
*CAP
1 *1236:D 0
2 *1157:X 0.000472447
3 *92:10 0.000472447
4 *92:10 *1045:C1 2.30292e-05
5 *92:10 *1157:A2 0
6 *92:10 *154:20 6.12571e-05
7 *92:10 *193:50 0
8 *92:10 *262:14 6.48274e-05
*RES
1 *1157:X *92:10 45.8507 
2 *92:10 *1236:D 38 
*END

*D_NET *93 0.000641168
*CONN
*I *1308:A I *D sky130_fd_sc_hd__dlygate4sd3_1
*I *1155:X O *D sky130_fd_sc_hd__a21o_1
*CAP
1 *1308:A 9.02317e-05
2 *1155:X 9.02317e-05
3 *1308:A *240:16 9.50411e-05
4 *1308:A *268:56 5.50106e-05
5 *1308:A *328:8 0.000310653
*RES
1 *1155:X *1308:A 49.48 
*END

*D_NET *94 0.00123309
*CONN
*I *1238:D I *D sky130_fd_sc_hd__dfrtp_1
*I *1154:X O *D sky130_fd_sc_hd__a31o_1
*CAP
1 *1238:D 7.58868e-05
2 *1154:X 0.000334965
3 *94:10 0.000410852
4 *1238:D *1238:CLK 7.88828e-05
5 *94:10 *1154:A2 4.86103e-05
6 *94:10 *155:125 3.62164e-05
7 *94:10 *261:42 0.000247678
*RES
1 *1154:X *94:10 44.4214 
2 *94:10 *1238:D 39.5743 
*END

*D_NET *95 0.000841273
*CONN
*I *1301:A I *D sky130_fd_sc_hd__dlygate4sd3_1
*I *1152:X O *D sky130_fd_sc_hd__a31o_1
*CAP
1 *1301:A 0
2 *1152:X 0.000144102
3 *95:10 0.000144102
4 *95:10 *1151:A 0.000139357
5 *95:10 *1152:A2 1.41129e-05
6 *95:10 *1152:B1 2.32101e-05
7 *95:10 *193:62 0.000183733
8 *95:10 *361:50 0.000192656
*RES
1 *1152:X *95:10 27.4743 
2 *95:10 *1301:A 23 
*END

*D_NET *96 0.000381755
*CONN
*I *1240:D I *D sky130_fd_sc_hd__dfrtp_1
*I *1150:X O *D sky130_fd_sc_hd__clkbuf_1
*CAP
1 *1240:D 0.000185022
2 *1150:X 0.000185022
3 *1240:D *1240:CLK 1.17112e-05
*RES
1 *1150:X *1240:D 48.5479 
*END

*D_NET *97 0.000368385
*CONN
*I *1241:D I *D sky130_fd_sc_hd__dfrtp_4
*I *1147:X O *D sky130_fd_sc_hd__clkbuf_1
*CAP
1 *1241:D 0
2 *1147:X 0.000124517
3 *97:10 0.000124517
4 *97:10 *292:14 0.000114083
5 *97:10 *293:6 5.26733e-06
*RES
1 *1147:X *97:10 40.175 
2 *97:10 *1241:D 38 
*END

*D_NET *98 0.000213578
*CONN
*I *1242:D I *D sky130_fd_sc_hd__dfrtp_4
*I *1143:X O *D sky130_fd_sc_hd__clkbuf_1
*CAP
1 *1242:D 0
2 *1143:X 8.25999e-05
3 *98:8 8.25999e-05
4 *98:8 *1242:CLK 4.83778e-05
*RES
1 *1143:X *98:8 39.9057 
2 *98:8 *1242:D 38 
*END

*D_NET *99 0.000377994
*CONN
*I *1243:D I *D sky130_fd_sc_hd__dfrtp_4
*I *1139:X O *D sky130_fd_sc_hd__clkbuf_1
*CAP
1 *1243:D 0.000135838
2 *1139:X 0.000135838
3 *1243:D *267:73 7.41133e-05
4 *1243:D *267:79 3.22051e-05
*RES
1 *1139:X *1243:D 48.5479 
*END

*D_NET *100 0.000640721
*CONN
*I *1244:D I *D sky130_fd_sc_hd__dfrtp_2
*I *1134:X O *D sky130_fd_sc_hd__clkbuf_1
*CAP
1 *1244:D 0
2 *1134:X 0.000231558
3 *100:10 0.000231558
4 *100:10 *230:23 5.561e-05
5 *100:10 *267:56 1.01436e-05
6 *100:10 *267:69 0.000111852
*RES
1 *1134:X *100:10 41.6043 
2 *100:10 *1244:D 38 
*END

*D_NET *101 0.00066342
*CONN
*I *1245:D I *D sky130_fd_sc_hd__dfrtp_4
*I *1129:X O *D sky130_fd_sc_hd__clkbuf_1
*CAP
1 *1245:D 0
2 *1129:X 0.000202668
3 *101:14 0.000202668
4 *101:14 *192:48 0.000139974
5 *101:14 *197:38 5.74417e-05
6 *101:14 *267:12 6.06668e-05
*RES
1 *1129:X *101:14 42.2464 
2 *101:14 *1245:D 38 
*END

*D_NET *102 0.000342148
*CONN
*I *1246:D I *D sky130_fd_sc_hd__dfrtp_2
*I *1124:X O *D sky130_fd_sc_hd__clkbuf_1
*CAP
1 *1246:D 0
2 *1124:X 0.000156386
3 *102:10 0.000156386
4 *102:10 *186:40 0
5 *102:10 *201:20 2.93747e-05
*RES
1 *1124:X *102:10 40.5271 
2 *102:10 *1246:D 38 
*END

*D_NET *103 0.00024543
*CONN
*I *1247:D I *D sky130_fd_sc_hd__dfrtp_1
*I *1119:X O *D sky130_fd_sc_hd__clkbuf_1
*CAP
1 *1247:D 0
2 *1119:X 4.5488e-05
3 *103:8 4.5488e-05
4 *103:8 *201:28 0.000116314
5 *103:8 *243:10 3.81391e-05
*RES
1 *1119:X *103:8 39.5536 
2 *103:8 *1247:D 38 
*END

*D_NET *104 0.000399128
*CONN
*I *1248:D I *D sky130_fd_sc_hd__dfrtp_1
*I *1113:X O *D sky130_fd_sc_hd__clkbuf_1
*CAP
1 *1248:D 1.47919e-05
2 *1113:X 0.000103697
3 *104:10 0.000118489
4 *1248:D *265:73 1.10317e-05
5 *104:10 *243:10 3.83778e-05
6 *104:10 *294:14 0.00011274
*RES
1 *1113:X *104:10 39.8229 
2 *104:10 *1248:D 38.2123 
*END

*D_NET *105 0.000279385
*CONN
*I *1249:D I *D sky130_fd_sc_hd__dfrtp_1
*I *1102:X O *D sky130_fd_sc_hd__xor2_1
*CAP
1 *1249:D 9.04207e-05
2 *1102:X 9.04207e-05
3 *1249:D *266:36 2.93747e-05
4 *1249:D *266:49 6.9169e-05
*RES
1 *1102:X *1249:D 48.0507 
*END

*D_NET *106 0.00227546
*CONN
*I *1250:D I *D sky130_fd_sc_hd__dfrtp_4
*I *1101:Y O *D sky130_fd_sc_hd__o21ai_1
*CAP
1 *1250:D 0.000149588
2 *1101:Y 0.000517134
3 *106:10 0.000666723
4 *1250:D *1250:CLK 2.93431e-05
5 *1250:D *271:18 0.00036023
6 *106:10 *1094:A2 0.000355029
7 *106:10 *161:14 1.40958e-05
8 *106:10 *188:8 5.50106e-05
9 *106:10 *193:20 7.53384e-06
10 *106:10 *266:12 0
11 *106:10 *305:24 0.00012077
*RES
1 *1101:Y *106:10 48.585 
2 *106:10 *1250:D 41.9564 
*END

*D_NET *107 0.00112303
*CONN
*I *1251:D I *D sky130_fd_sc_hd__dfrtp_4
*I *1097:Y O *D sky130_fd_sc_hd__xnor2_1
*CAP
1 *1251:D 0
2 *1097:Y 0.00053092
3 *107:8 0.00053092
4 *107:8 *1097:B 3.23857e-06
5 *107:8 *1251:CLK 5.79559e-05
*RES
1 *1097:Y *107:8 32.2179 
2 *107:8 *1251:D 23 
*END

*D_NET *108 0.000782957
*CONN
*I *1252:D I *D sky130_fd_sc_hd__dfrtp_1
*I *1091:Y O *D sky130_fd_sc_hd__o21ai_1
*CAP
1 *1252:D 0
2 *1091:Y 0.00014998
3 *108:6 0.00014998
4 *108:6 *1072:A1 0.000312348
5 *108:6 *1252:CLK 0.00011501
6 *108:6 *250:99 5.56389e-05
*RES
1 *1091:Y *108:6 27.4329 
2 *108:6 *1252:D 23 
*END

*D_NET *109 0.000383401
*CONN
*I *1253:D I *D sky130_fd_sc_hd__dfrtp_1
*I *1089:X O *D sky130_fd_sc_hd__clkbuf_1
*CAP
1 *1253:D 7.9736e-05
2 *1089:X 6.3969e-05
3 *109:8 0.000143705
4 *1253:D *356:10 2.7237e-05
5 *109:8 *154:14 2.79004e-05
6 *109:8 *184:8 4.08537e-05
*RES
1 *1089:X *109:8 39.2014 
2 *109:8 *1253:D 39.595 
*END

*D_NET *110 0.000807239
*CONN
*I *1254:D I *D sky130_fd_sc_hd__dfrtp_1
*I *1086:Y O *D sky130_fd_sc_hd__o221ai_1
*CAP
1 *1254:D 4.30126e-05
2 *1086:Y 0.000139439
3 *110:8 0.000182452
4 *1254:D *265:22 6.17437e-06
5 *110:8 *1076:A 0.000171906
6 *110:8 *112:10 0
7 *110:8 *155:26 0.000197479
8 *110:8 *251:53 6.67764e-05
*RES
1 *1086:Y *110:8 42.3707 
2 *110:8 *1254:D 38.6214 
*END

*D_NET *111 0.000654201
*CONN
*I *1255:D I *D sky130_fd_sc_hd__dfrtp_2
*I *1083:Y O *D sky130_fd_sc_hd__xnor2_1
*CAP
1 *1255:D 0
2 *1083:Y 0.000207806
3 *111:10 0.000207806
4 *111:10 *248:20 4.58924e-05
5 *111:10 *265:54 0.00014411
6 *111:10 *302:23 4.85876e-05
*RES
1 *1083:Y *111:10 41.9564 
2 *111:10 *1255:D 38 
*END

*D_NET *112 0.00177341
*CONN
*I *1256:D I *D sky130_fd_sc_hd__dfrtp_1
*I *1080:X O *D sky130_fd_sc_hd__o31a_1
*CAP
1 *1256:D 0.000127127
2 *1080:X 0.000631249
3 *112:10 0.000758376
4 *112:10 *1076:A 0
5 *112:10 *1078:A2 0.000157432
6 *112:10 *1080:A2 9.92279e-05
7 *112:10 *175:8 0
8 *65:8 *112:10 0
9 *110:8 *112:10 0
*RES
1 *1080:X *112:10 48.7507 
2 *112:10 *1256:D 39.595 
*END

*D_NET *113 0.000481152
*CONN
*I *1257:D I *D sky130_fd_sc_hd__dfrtp_1
*I *1073:X O *D sky130_fd_sc_hd__clkbuf_1
*CAP
1 *1257:D 5.56117e-05
2 *1073:X 0.000113929
3 *113:10 0.00016954
4 *1257:D *296:8 2.93845e-05
5 *113:10 *1072:A0 8.4047e-05
6 *113:10 *250:133 2.86398e-05
*RES
1 *1073:X *113:10 39.8229 
2 *113:10 *1257:D 38.6888 
*END

*D_NET *114 0.000328093
*CONN
*I *1258:D I *D sky130_fd_sc_hd__dfrtp_1
*I *1071:X O *D sky130_fd_sc_hd__clkbuf_1
*CAP
1 *1258:D 0
2 *1071:X 0.0001411
3 *114:10 0.0001411
4 *114:10 *171:10 4.58924e-05
*RES
1 *1071:X *114:10 40.5271 
2 *114:10 *1258:D 38 
*END

*D_NET *115 0.000597956
*CONN
*I *1259:D I *D sky130_fd_sc_hd__dfrtp_1
*I *1069:X O *D sky130_fd_sc_hd__clkbuf_1
*CAP
1 *1259:D 0.00014936
2 *1069:X 7.86745e-05
3 *115:8 0.000228034
4 *115:8 *250:152 0.000141888
5 *115:8 *313:41 0
*RES
1 *1069:X *115:8 39.9057 
2 *115:8 *1259:D 40.5271 
*END

*D_NET *116 0.00100233
*CONN
*I *1260:D I *D sky130_fd_sc_hd__dfrtp_1
*I *1067:X O *D sky130_fd_sc_hd__clkbuf_1
*CAP
1 *1260:D 0
2 *1067:X 0.000307939
3 *116:14 0.000307939
4 *116:14 *1064:S 5.69371e-05
5 *116:14 *1261:CLK 7.24021e-05
6 *116:14 *169:8 8.85189e-05
7 *116:14 *297:12 0
8 *116:14 *299:12 0.00013339
9 *116:14 *299:26 2.70366e-05
10 *116:14 *313:41 8.16757e-06
*RES
1 *1067:X *116:14 44.7114 
2 *116:14 *1260:D 38 
*END

*D_NET *117 0.00155336
*CONN
*I *1261:D I *D sky130_fd_sc_hd__dfrtp_1
*I *1065:X O *D sky130_fd_sc_hd__clkbuf_1
*CAP
1 *1261:D 0
2 *1065:X 0.000544135
3 *117:10 0.000544135
4 *117:10 *1064:A0 2.38387e-06
5 *117:10 *1065:A 6.84697e-05
6 *117:10 *297:12 7.03766e-05
7 *117:10 *299:26 0.000274078
8 *25:8 *117:10 4.97789e-05
*RES
1 *1065:X *117:10 47.1971 
2 *117:10 *1261:D 38 
*END

*D_NET *118 0.00029529
*CONN
*I *1262:D I *D sky130_fd_sc_hd__dfrtp_1
*I *1063:X O *D sky130_fd_sc_hd__clkbuf_1
*CAP
1 *1262:D 0.000118475
2 *1063:X 0.000118475
3 *1262:D *265:26 5.83407e-05
*RES
1 *1063:X *1262:D 48.5479 
*END

*D_NET *119 0.000321291
*CONN
*I *1263:D I *D sky130_fd_sc_hd__dfrtp_1
*I *1061:X O *D sky130_fd_sc_hd__clkbuf_1
*CAP
1 *1263:D 0
2 *1061:X 0.000149701
3 *119:10 0.000149701
4 *119:10 *1061:A 2.18888e-05
5 *119:10 *243:10 0
*RES
1 *1061:X *119:10 40.5271 
2 *119:10 *1263:D 38 
*END

*D_NET *120 0.000404787
*CONN
*I *1264:D I *D sky130_fd_sc_hd__dfrtp_4
*I *1058:X O *D sky130_fd_sc_hd__a41o_1
*CAP
1 *1264:D 5.47056e-05
2 *1058:X 5.82743e-05
3 *120:8 0.00011298
4 *1264:D *1264:CLK 3.22511e-05
5 *120:8 *156:93 0.000110922
6 *120:8 *266:74 3.56537e-05
*RES
1 *1058:X *120:8 39.5536 
2 *120:8 *1264:D 38.6888 
*END

*D_NET *121 0.0005185
*CONN
*I *1266:D I *D sky130_fd_sc_hd__dfrtp_1
*I *1052:X O *D sky130_fd_sc_hd__a32o_1
*CAP
1 *1266:D 0
2 *1052:X 0.000190638
3 *121:10 0.000190638
4 *121:10 *1052:A1 8.48502e-06
5 *121:10 *155:104 3.21223e-05
6 *121:10 *155:125 2.22183e-05
7 *121:10 *158:14 2.93747e-05
8 *121:10 *266:74 3.88504e-05
9 *121:10 *293:118 6.17437e-06
10 *121:10 *305:16 0
*RES
1 *1052:X *121:10 41.3557 
2 *121:10 *1266:D 38 
*END

*D_NET *122 0.0008891
*CONN
*I *1267:D I *D sky130_fd_sc_hd__dfrtp_1
*I *1045:X O *D sky130_fd_sc_hd__o211a_1
*CAP
1 *1267:D 0
2 *1045:X 0.000346329
3 *122:10 0.000346329
4 *122:10 *1045:A1 8.1796e-05
5 *122:10 *1231:A 0
6 *122:10 *263:32 0
7 *122:10 *263:47 0
8 *122:10 *359:91 0.000114645
9 *78:8 *122:10 0
*RES
1 *1045:X *122:10 44.4214 
2 *122:10 *1267:D 38 
*END

*D_NET *123 0.000812336
*CONN
*I *1273:D I *D sky130_fd_sc_hd__dfrtp_1
*I *1041:X O *D sky130_fd_sc_hd__a22o_1
*CAP
1 *1273:D 4.11597e-05
2 *1041:X 0.00020724
3 *123:10 0.0002484
4 *1273:D *1036:A1 2.64616e-05
5 *123:10 *138:53 1.32314e-05
6 *123:10 *138:55 0.000139357
7 *123:10 *264:46 0.000136486
*RES
1 *1041:X *123:10 41.48 
2 *123:10 *1273:D 38.6214 
*END

*D_NET *124 0.000484378
*CONN
*I *1274:D I *D sky130_fd_sc_hd__dfrtp_1
*I *1038:X O *D sky130_fd_sc_hd__clkbuf_1
*CAP
1 *1274:D 3.77142e-05
2 *1038:X 0.000204475
3 *124:10 0.000242189
4 *124:10 *245:12 0
*RES
1 *1038:X *124:10 41.0036 
2 *124:10 *1274:D 38.6214 
*END

*D_NET *125 0.000541411
*CONN
*I *1275:D I *D sky130_fd_sc_hd__dfrtp_1
*I *1034:X O *D sky130_fd_sc_hd__clkbuf_1
*CAP
1 *1275:D 2.31874e-05
2 *1034:X 0.000158038
3 *125:10 0.000181226
4 *1275:D *1275:CLK 5.37348e-06
5 *1275:D *134:35 3.22879e-05
6 *125:10 *1034:A 5.50106e-05
7 *125:10 *1167:B1 0
8 *125:10 *268:73 0
9 *125:10 *319:8 8.62876e-05
*RES
1 *1034:X *125:10 40.8793 
2 *125:10 *1275:D 38.6214 
*END

*D_NET *126 0.000690328
*CONN
*I *1276:D I *D sky130_fd_sc_hd__dfrtp_1
*I *1030:X O *D sky130_fd_sc_hd__clkbuf_1
*CAP
1 *1276:D 0
2 *1030:X 0.000303259
3 *126:10 0.000303259
4 *126:10 *138:12 8.38096e-05
5 *126:10 *356:44 0
6 *126:10 *362:20 0
*RES
1 *1030:X *126:10 42.9093 
2 *126:10 *1276:D 38 
*END

*D_NET *127 0.000323641
*CONN
*I *1277:D I *D sky130_fd_sc_hd__dfrtp_1
*I *1026:X O *D sky130_fd_sc_hd__clkbuf_1
*CAP
1 *1277:D 0
2 *1026:X 0.00016182
3 *127:10 0.00016182
4 *127:10 *145:8 0
5 *1276:RESET_B *127:10 0
*RES
1 *1026:X *127:10 40.5271 
2 *127:10 *1277:D 38 
*END

*D_NET *128 0.000513909
*CONN
*I *1278:D I *D sky130_fd_sc_hd__dfrtp_1
*I *1022:X O *D sky130_fd_sc_hd__clkbuf_1
*CAP
1 *1278:D 0
2 *1022:X 0.000169038
3 *128:10 0.000169038
4 *128:10 *1022:A 1.97325e-05
5 *128:10 *241:36 0.000152394
6 *128:10 *244:10 0
7 *128:10 *342:10 3.70553e-06
*RES
1 *1022:X *128:10 41.0036 
2 *128:10 *1278:D 38 
*END

*D_NET *129 0.000619095
*CONN
*I *1279:D I *D sky130_fd_sc_hd__dfrtp_1
*I *1018:X O *D sky130_fd_sc_hd__clkbuf_1
*CAP
1 *1279:D 0
2 *1018:X 0.000187808
3 *129:10 0.000187808
4 *129:10 *1015:B 4.6595e-05
5 *129:10 *242:6 5.50049e-05
6 *129:10 *242:14 0.000141879
7 *129:10 *252:12 0
*RES
1 *1018:X *129:10 41.48 
2 *129:10 *1279:D 38 
*END

*D_NET *130 0.000371601
*CONN
*I *1280:D I *D sky130_fd_sc_hd__dfrtp_1
*I *1014:X O *D sky130_fd_sc_hd__clkbuf_1
*CAP
1 *1280:D 2.87891e-05
2 *1014:X 7.51212e-05
3 *130:8 0.00010391
4 *1280:D *1039:A 2.18926e-05
5 *130:8 *136:95 0
6 *130:8 *244:10 0.000141888
*RES
1 *1014:X *130:8 39.9057 
2 *130:8 *1280:D 38.6214 
*END

*D_NET *131 0.0157373
*CONN
*I *1224:A I *D sky130_fd_sc_hd__nor2_1
*I *1227:A I *D sky130_fd_sc_hd__nor2_1
*I *1005:A I *D sky130_fd_sc_hd__clkbuf_4
*I *1225:A I *D sky130_fd_sc_hd__nor2_1
*I *1184:A I *D sky130_fd_sc_hd__clkbuf_4
*I *1226:A I *D sky130_fd_sc_hd__nor2_1
*I *1223:A I *D sky130_fd_sc_hd__nor2_1
*I *1208:A I *D sky130_fd_sc_hd__clkbuf_4
*I *1196:A I *D sky130_fd_sc_hd__clkbuf_4
*I *1004:X O *D sky130_fd_sc_hd__buf_2
*CAP
1 *1224:A 0.000406115
2 *1227:A 0
3 *1005:A 0
4 *1225:A 2.14194e-05
5 *1184:A 0
6 *1226:A 2.95011e-05
7 *1223:A 1.89728e-05
8 *1208:A 0.000152956
9 *1196:A 0.00034168
10 *1004:X 0.000765232
11 *131:127 0.000869211
12 *131:110 0.0012998
13 *131:91 0.00137199
14 *131:84 0.000167913
15 *131:76 0.00120112
16 *131:61 0.000880611
17 *131:46 0.000495249
18 *131:16 0.000650012
19 *131:14 0.000478543
20 *131:10 0.000943895
21 *1196:A *1103:A 1.73399e-05
22 *1196:A *265:112 5.50106e-05
23 *1208:A *133:32 0
24 *1208:A *250:8 2.45549e-06
25 *1208:A *250:75 0.000114092
26 *1208:A *265:112 0
27 *1224:A *1152:A2 0
28 *1224:A *1224:B 0.000298836
29 *1224:A *132:128 0.000193398
30 *1225:A *133:75 5.90675e-06
31 *1226:A *186:22 5.50106e-05
32 *131:10 *1199:A 0.000356718
33 *131:10 *1199:B 3.24262e-05
34 *131:10 *186:10 6.17437e-06
35 *131:10 *360:18 0.000193575
36 *131:14 *133:32 0
37 *131:14 *248:116 0
38 *131:14 *360:8 0
39 *131:16 *133:32 0
40 *131:16 *248:116 0
41 *131:61 *1223:B 9.84794e-05
42 *131:61 *133:32 1.01436e-05
43 *131:61 *133:49 0.000166367
44 *131:61 *293:44 0
45 *131:61 *360:8 0.000140671
46 *131:76 *1121:A1 2.11827e-05
47 *131:76 *133:49 2.76611e-06
48 *131:76 *133:66 7.85199e-05
49 *131:76 *133:75 5.70419e-05
50 *131:76 *186:40 0
51 *131:76 *197:44 8.80821e-05
52 *131:76 *201:12 0.000395895
53 *131:76 *258:8 0
54 *131:76 *293:44 0
55 *131:76 *360:8 6.67764e-05
56 *131:84 *1099:A 5.3304e-05
57 *131:84 *201:12 9.48381e-06
58 *131:84 *203:20 2.64616e-05
59 *131:84 *246:16 3.20914e-05
60 *131:84 *247:10 0.000110922
61 *131:84 *247:64 5.01986e-05
62 *131:84 *293:44 0
63 *131:91 *133:75 0.000558084
64 *131:91 *201:12 0.000140259
65 *131:110 *1238:CLK 0.000270873
66 *131:110 *132:20 0
67 *131:110 *133:75 4.04206e-05
68 *131:110 *133:90 0.000156718
69 *131:110 *261:42 0
70 *131:110 *268:31 8.06039e-05
71 *131:127 *1224:B 6.07611e-06
72 *131:127 *132:10 8.4047e-05
73 *131:127 *132:128 0.000722495
74 *131:127 *133:101 0.000215489
75 *131:127 *268:31 0.000120672
76 *131:127 *336:10 0.000135547
77 *1268:D *1196:A 5.67058e-05
78 *58:10 *131:10 0.000131009
79 *79:8 *1208:A 0
80 *79:8 *131:16 0
81 *80:12 *1224:A 0
82 *81:10 *131:110 2.93845e-05
83 *82:12 *131:76 3.81391e-05
84 *83:10 *131:127 0.000117244
*RES
1 *1004:X *131:10 39.5093 
2 *131:10 *131:14 18.3143 
3 *131:14 *131:16 2.96214 
4 *131:16 *1196:A 44.1729 
5 *131:16 *1208:A 40.8793 
6 *131:14 *131:46 17.5271 
7 *131:46 *1223:A 23.4971 
8 *131:46 *131:61 23.8036 
9 *131:61 *1226:A 38.6214 
10 *131:61 *131:76 28.0293 
11 *131:76 *131:84 33.5836 
12 *131:84 *1184:A 23 
13 *131:76 *131:91 11.5793 
14 *131:91 *1225:A 23.4971 
15 *131:91 *131:110 29.0236 
16 *131:110 *1005:A 38 
17 *131:110 *131:127 42.6564 
18 *131:127 *1227:A 38 
19 *131:127 *1224:A 46.5136 
*END

*D_NET *132 0.0201016
*CONN
*I *1035:A I *D sky130_fd_sc_hd__nor2_1
*I *1053:A I *D sky130_fd_sc_hd__nor2_1
*I *1023:A I *D sky130_fd_sc_hd__nor2_1
*I *1039:A I *D sky130_fd_sc_hd__nor2_1
*I *1008:A I *D sky130_fd_sc_hd__nor2_1
*I *1015:A I *D sky130_fd_sc_hd__nor2_1
*I *1031:A I *D sky130_fd_sc_hd__nor2_1
*I *1019:A I *D sky130_fd_sc_hd__nor2_1
*I *1027:A I *D sky130_fd_sc_hd__nor2_1
*I *1042:A I *D sky130_fd_sc_hd__nor2_1
*I *1005:X O *D sky130_fd_sc_hd__clkbuf_4
*CAP
1 *1035:A 0
2 *1053:A 6.67681e-05
3 *1023:A 5.45344e-05
4 *1039:A 0.00073261
5 *1008:A 4.2583e-05
6 *1015:A 2.28379e-05
7 *1031:A 0
8 *1019:A 0.000477041
9 *1027:A 0
10 *1042:A 2.14194e-05
11 *1005:X 0.000123719
12 *132:143 0.000314169
13 *132:128 0.00107326
14 *132:93 0.00114538
15 *132:77 0.000292009
16 *132:65 0.00050528
17 *132:59 0.000863601
18 *132:42 0.00109141
19 *132:38 0.000452292
20 *132:31 0.000391213
21 *132:20 0.00167773
22 *132:10 0.00216751
23 *1008:A *134:127 9.84851e-05
24 *1015:A *1015:B 1.5055e-05
25 *1019:A *134:95 6.745e-05
26 *1019:A *342:10 2.64616e-05
27 *1023:A *134:76 9.5877e-05
28 *1039:A *1280:CLK 5.40971e-05
29 *1039:A *138:53 4.05196e-05
30 *1039:A *281:25 0.000127272
31 *1039:A *298:44 0
32 *1042:A *134:60 5.90675e-06
33 *1053:A *134:14 5.50106e-05
34 *1053:A *134:25 0.00010018
35 *1053:A *242:6 0.000185428
36 *132:10 *133:101 2.79004e-05
37 *132:10 *359:81 9.75779e-05
38 *132:20 *1180:A 5.50106e-05
39 *132:20 *134:60 0.00010655
40 *132:20 *244:6 0.000348512
41 *132:20 *268:31 6.15314e-05
42 *132:20 *361:10 6.50506e-06
43 *132:31 *134:60 4.95081e-05
44 *132:31 *134:67 0.000487829
45 *132:31 *134:76 4.73465e-05
46 *132:38 *134:76 0.000229526
47 *132:42 *244:10 0.000215529
48 *132:42 *277:28 0.000716442
49 *132:59 *140:10 0
50 *132:59 *244:10 0.000202097
51 *132:59 *277:28 0.000476382
52 *132:65 *1015:B 2.87134e-05
53 *132:65 *277:18 0.000431671
54 *132:77 *1015:B 0.000309364
55 *132:77 *134:50 0.000117786
56 *132:77 *134:60 4.6318e-06
57 *132:77 *242:6 3.97681e-05
58 *132:77 *277:18 0.000700066
59 *132:77 *277:45 2.51071e-05
60 *132:93 *140:10 0
61 *132:93 *244:10 0.000142233
62 *132:93 *281:10 0.000164282
63 *132:93 *281:25 0.000225275
64 *132:93 *298:44 0
65 *132:128 *133:101 4.98718e-06
66 *132:128 *134:14 0
67 *132:128 *134:25 0.000101129
68 *132:128 *242:6 0.000181131
69 *132:128 *336:10 5.30621e-05
70 *132:128 *359:119 0.00014522
71 *132:143 *1035:B 0.000266359
72 *132:143 *134:25 6.68793e-05
73 oaddr[4] *132:93 0
74 *1224:A *132:128 0.000193398
75 *1280:D *1039:A 2.18926e-05
76 *41:10 *132:128 5.61311e-05
77 *76:10 *132:143 6.63698e-05
78 *83:10 *132:128 0.000264334
79 *87:8 *132:31 0.000144501
80 *91:8 *1039:A 2.54046e-05
81 *131:110 *132:20 0
82 *131:127 *132:10 8.4047e-05
83 *131:127 *132:128 0.000722495
*RES
1 *1005:X *132:10 40.2993 
2 *132:10 *132:20 36.895 
3 *132:20 *1042:A 23.4971 
4 *132:20 *132:31 7.78857 
5 *132:31 *1027:A 23 
6 *132:31 *132:38 2.52714 
7 *132:38 *132:42 24.6529 
8 *132:42 *1019:A 44.235 
9 *132:42 *132:59 8.30643 
10 *132:59 *132:65 20.4064 
11 *132:65 *132:77 41.2479 
12 *132:77 *1031:A 23 
13 *132:65 *1015:A 23.6732 
14 *132:59 *132:93 8.94857 
15 *132:93 *1008:A 39.0979 
16 *132:93 *1039:A 48.5229 
17 *132:38 *1023:A 24.0979 
18 *132:10 *132:128 35.155 
19 *132:128 *1053:A 25.5479 
20 *132:128 *132:143 38.5964 
21 *132:143 *1035:A 23 
*END

*D_NET *133 0.017352
*CONN
*I *1197:A I *D sky130_fd_sc_hd__clkbuf_4
*I *1209:A I *D sky130_fd_sc_hd__clkbuf_4
*I *1224:B I *D sky130_fd_sc_hd__nor2_1
*I *1227:B I *D sky130_fd_sc_hd__nor2_1
*I *1007:A I *D sky130_fd_sc_hd__clkbuf_4
*I *1225:B I *D sky130_fd_sc_hd__nor2_1
*I *1185:A I *D sky130_fd_sc_hd__clkbuf_4
*I *1226:B I *D sky130_fd_sc_hd__nor2_1
*I *1223:B I *D sky130_fd_sc_hd__nor2_1
*I *1006:X O *D sky130_fd_sc_hd__buf_2
*CAP
1 *1197:A 0
2 *1209:A 0
3 *1224:B 0.000392111
4 *1227:B 0
5 *1007:A 0
6 *1225:B 0
7 *1185:A 0
8 *1226:B 0
9 *1223:B 4.0868e-05
10 *1006:X 6.95826e-05
11 *133:101 0.00085616
12 *133:90 0.000913884
13 *133:75 0.00104236
14 *133:66 0.000977896
15 *133:49 0.000713783
16 *133:34 0.000369278
17 *133:32 0.0011415
18 *133:26 0.00179555
19 *133:14 0.000948344
20 *133:8 0.000363869
21 *1224:B *134:14 0
22 *133:8 *188:16 2.79004e-05
23 *133:8 *305:24 0
24 *133:14 *1096:A 3.22467e-05
25 *133:14 *190:10 0.000187433
26 *133:14 *249:14 5.83407e-05
27 *133:14 *249:89 0.000156386
28 *133:26 *1206:A 0
29 *133:26 *248:20 7.2e-05
30 *133:26 *248:35 3.22879e-05
31 *133:26 *249:14 0.000679256
32 *133:26 *249:29 0.000268868
33 *133:32 *165:28 0.000543765
34 *133:32 *248:20 0.000168985
35 *133:32 *249:29 0.000164354
36 *133:32 *250:18 0
37 *133:32 *250:36 3.83059e-05
38 *133:32 *250:75 0
39 *133:32 *251:14 0.000166513
40 *133:32 *251:53 0
41 *133:32 *293:44 0
42 *133:32 *293:54 0.000348706
43 *133:32 *301:23 1.01436e-05
44 *133:49 *293:44 0.00020395
45 *133:66 *293:44 0.000595257
46 *133:75 *192:16 0.000398071
47 *133:90 *163:22 0
48 *133:90 *247:22 0.000358644
49 *133:90 *359:81 0.000228001
50 *133:101 *134:14 0
51 *133:101 *247:22 8.43466e-05
52 *133:101 *261:42 0.000569635
53 *133:101 *261:65 2.11157e-05
54 *133:101 *336:10 0.000241355
55 *133:101 *359:81 9.58714e-05
56 *1208:A *133:32 0
57 *1224:A *1224:B 0.000298836
58 *1225:A *133:75 5.90675e-06
59 *79:8 *133:32 9.88678e-05
60 *80:12 *1224:B 3.22051e-05
61 *82:12 *133:66 0.000116314
62 *131:14 *133:32 0
63 *131:16 *133:32 0
64 *131:61 *1223:B 9.84794e-05
65 *131:61 *133:32 1.01436e-05
66 *131:61 *133:49 0.000166367
67 *131:76 *133:49 2.76611e-06
68 *131:76 *133:66 7.85199e-05
69 *131:76 *133:75 5.70419e-05
70 *131:91 *133:75 0.000558084
71 *131:110 *133:75 4.04206e-05
72 *131:110 *133:90 0.000156718
73 *131:127 *1224:B 6.07611e-06
74 *131:127 *133:101 0.000215489
75 *132:10 *133:101 2.79004e-05
76 *132:128 *133:101 4.98718e-06
*RES
1 *1006:X *133:8 39.2014 
2 *133:8 *133:14 22.3121 
3 *133:14 *133:26 44.2721 
4 *133:26 *133:32 44.3314 
5 *133:32 *133:34 15 
6 *133:34 *1223:B 24.0979 
7 *133:34 *133:49 22.975 
8 *133:49 *1226:B 38 
9 *133:49 *133:66 25.2329 
10 *133:66 *1185:A 23 
11 *133:66 *133:75 13.9821 
12 *133:75 *1225:B 23 
13 *133:75 *133:90 40.2743 
14 *133:90 *1007:A 23 
15 *133:90 *133:101 27.5114 
16 *133:101 *1227:B 38 
17 *133:101 *1224:B 46.5136 
18 *133:26 *1209:A 23 
19 *133:14 *1197:A 23 
*END

*D_NET *134 0.0192455
*CONN
*I *1035:B I *D sky130_fd_sc_hd__nor2_1
*I *1039:B I *D sky130_fd_sc_hd__nor2_1
*I *1008:B I *D sky130_fd_sc_hd__nor2_1
*I *1015:B I *D sky130_fd_sc_hd__nor2_1
*I *1019:B I *D sky130_fd_sc_hd__nor2_1
*I *1023:B I *D sky130_fd_sc_hd__nor2_1
*I *1027:B I *D sky130_fd_sc_hd__nor2_1
*I *1042:B I *D sky130_fd_sc_hd__nor2_1
*I *1031:B I *D sky130_fd_sc_hd__nor2_1
*I *1053:B I *D sky130_fd_sc_hd__nor2_1
*I *1007:X O *D sky130_fd_sc_hd__clkbuf_4
*CAP
1 *1035:B 0.000248831
2 *1039:B 0.000273944
3 *1008:B 0
4 *1015:B 0.000304533
5 *1019:B 0
6 *1023:B 2.34823e-05
7 *1027:B 0
8 *1042:B 0
9 *1031:B 1.72917e-05
10 *1053:B 0
11 *1007:X 9.9598e-05
12 *134:127 0.000905033
13 *134:119 0.00146034
14 *134:95 0.000507971
15 *134:76 0.000707748
16 *134:67 0.000279101
17 *134:60 0.00107142
18 *134:50 0.00141602
19 *134:48 0.00056302
20 *134:35 0.00149169
21 *134:25 0.00177211
22 *134:14 0.00117443
23 *134:8 0.00108637
24 *1015:B *242:6 0.00035673
25 *1035:B *264:12 0
26 *1035:B *264:87 0
27 *1039:B *138:49 0
28 *1039:B *138:53 0.000128401
29 *1039:B *264:46 0
30 *134:8 *359:81 0.000141954
31 *134:14 *1159:A3 0.000135547
32 *134:14 *155:125 0.000266948
33 *134:14 *261:42 0.000165314
34 *134:14 *261:65 3.34818e-06
35 *134:14 *355:48 0
36 *134:35 *1275:CLK 3.82879e-05
37 *134:48 *1279:CLK 0
38 *134:50 *252:12 0.000121375
39 *134:60 *138:32 0
40 *134:60 *138:47 0
41 *134:60 *244:6 0.000272383
42 *134:60 *252:12 0.000299187
43 *134:60 *263:47 0
44 *134:60 *303:14 0
45 *134:60 *327:8 0
46 *134:67 *244:6 0.000255761
47 *134:76 *244:6 0.000189669
48 *134:76 *303:29 0.00010018
49 *134:95 *277:28 0
50 *134:95 *298:44 0.000608421
51 *134:95 *303:29 8.81732e-05
52 *134:119 *138:49 0
53 *134:119 *242:14 0
54 *134:119 *252:12 7.28526e-05
55 *134:119 *264:46 0
56 *134:119 *277:45 5.71709e-05
57 *1008:A *134:127 9.84851e-05
58 *1015:A *1015:B 1.5055e-05
59 *1019:A *134:95 6.745e-05
60 *1023:A *134:76 9.5877e-05
61 *1042:A *134:60 5.90675e-06
62 *1053:A *134:14 5.50106e-05
63 *1053:A *134:25 0.00010018
64 *1224:B *134:14 0
65 *1265:D *134:35 5.41288e-05
66 *1275:D *134:35 3.22879e-05
67 *1275:RESET_B *134:35 4.81296e-05
68 *1275:RESET_B *134:48 3.22051e-05
69 *41:10 *1035:B 0
70 *41:10 *134:25 0
71 *50:10 *134:60 3.68205e-05
72 *80:12 *134:14 0
73 *88:10 *134:76 2.30292e-05
74 *88:10 *134:95 1.40958e-05
75 *129:10 *1015:B 4.6595e-05
76 *132:20 *134:60 0.00010655
77 *132:31 *134:60 4.95081e-05
78 *132:31 *134:67 0.000487829
79 *132:31 *134:76 4.73465e-05
80 *132:38 *134:76 0.000229526
81 *132:65 *1015:B 2.87134e-05
82 *132:77 *1015:B 0.000309364
83 *132:77 *134:50 0.000117786
84 *132:77 *134:60 4.6318e-06
85 *132:128 *134:14 0
86 *132:128 *134:25 0.000101129
87 *132:143 *1035:B 0.000266359
88 *132:143 *134:25 6.68793e-05
89 *133:101 *134:14 0
*RES
1 *1007:X *134:8 39.5743 
2 *134:8 *134:14 34.43 
3 *134:14 *1053:B 23 
4 *134:14 *134:25 19.3086 
5 *134:25 *134:35 33.4357 
6 *134:35 *1031:B 23.4971 
7 *134:35 *134:48 17.5479 
8 *134:48 *134:50 3.31429 
9 *134:50 *134:60 36.0457 
10 *134:60 *1042:B 23 
11 *134:60 *134:67 5.38571 
12 *134:67 *1027:B 23 
13 *134:67 *134:76 5.88286 
14 *134:76 *1023:B 23.4971 
15 *134:76 *134:95 41.4136 
16 *134:95 *1019:B 23 
17 *134:50 *1015:B 47.28 
18 *134:48 *134:119 5.77929 
19 *134:119 *134:127 29.0029 
20 *134:127 *1008:B 23 
21 *134:119 *1039:B 43.1371 
22 *134:25 *1035:B 44.8357 
*END

*D_NET *135 0.00365404
*CONN
*I *1010:A I *D sky130_fd_sc_hd__clkbuf_4
*I *1075:A2 I *D sky130_fd_sc_hd__a32o_1
*I *1009:X O *D sky130_fd_sc_hd__or3_1
*CAP
1 *1010:A 0
2 *1075:A2 0.000803922
3 *1009:X 3.88336e-05
4 *135:25 0.000118931
5 *135:6 0.000961686
6 *1075:A2 *1047:A 3.22879e-05
7 *1075:A2 *1075:A3 0.000490979
8 *1075:A2 *1075:B1 2.55176e-05
9 *1075:A2 *156:10 5.50049e-05
10 *1075:A2 *157:46 0.000163466
11 *1075:A2 *161:93 9.75779e-05
12 *1075:A2 *162:14 0.000139352
13 *1075:A2 *162:18 6.70361e-05
14 *1075:A2 *162:30 9.61399e-05
15 *1075:A2 *313:6 3.53115e-05
16 *1075:A2 *313:19 0.000452236
17 *135:6 *1047:A 2.4754e-05
18 *135:25 *181:23 1.01436e-05
19 *135:25 *266:53 4.08641e-05
*RES
1 *1009:X *135:6 23.6214 
2 *135:6 *1075:A2 43.3207 
3 *135:6 *135:25 32.0507 
4 *135:25 *1010:A 23 
*END

*D_NET *136 0.0231519
*CONN
*I *1016:S I *D sky130_fd_sc_hd__mux2_1
*I *1011:S I *D sky130_fd_sc_hd__mux2_1
*I *1040:B I *D sky130_fd_sc_hd__nor2_1
*I *1032:S I *D sky130_fd_sc_hd__mux2_1
*I *1036:S I *D sky130_fd_sc_hd__mux2_1
*I *1020:S I *D sky130_fd_sc_hd__mux2_1
*I *1028:S I *D sky130_fd_sc_hd__mux2_1
*I *1024:S I *D sky130_fd_sc_hd__mux2_1
*I *1090:A2 I *D sky130_fd_sc_hd__o21ai_1
*I *1091:A1 I *D sky130_fd_sc_hd__o21ai_1
*I *1010:X O *D sky130_fd_sc_hd__clkbuf_4
*CAP
1 *1016:S 2.34823e-05
2 *1011:S 0.000115816
3 *1040:B 1.80182e-05
4 *1032:S 0.000598411
5 *1036:S 0.000104979
6 *1020:S 0.000356346
7 *1028:S 9.19421e-05
8 *1024:S 3.13643e-05
9 *1090:A2 0
10 *1091:A1 2.72046e-05
11 *1010:X 0.000139606
12 *136:120 0.000740523
13 *136:103 0.000886229
14 *136:97 0.000772973
15 *136:95 0.0016062
16 *136:89 0.00217243
17 *136:74 0.00125202
18 *136:55 0.000815237
19 *136:42 0.000401728
20 *136:40 0.00152668
21 *136:29 0.00192831
22 *136:10 0.000568442
23 *1011:S *283:12 9.21523e-05
24 *1011:S *285:22 3.18142e-05
25 *1020:S *279:25 0.000378149
26 *1020:S *303:29 0.000234504
27 *1024:S *1030:A 5.67058e-05
28 *1024:S *138:12 9.84794e-05
29 *1028:S *277:28 1.24376e-05
30 *1032:S *1032:A0 0.000102389
31 *1032:S *1041:B2 0
32 *1032:S *138:59 0.00012012
33 *1032:S *152:10 1.01436e-05
34 *1032:S *152:20 0
35 *1032:S *264:46 2.24973e-05
36 *1032:S *276:8 2.7142e-05
37 *1032:S *276:23 8.16279e-05
38 *1032:S *330:6 0.000141954
39 *1036:S *1036:A0 1.73399e-05
40 *1036:S *1036:A1 0.000182793
41 *1036:S *1041:B2 0
42 *1036:S *1273:CLK 3.7122e-06
43 *1040:B *138:55 2.93845e-05
44 *1040:B *330:6 5.50106e-05
45 *1091:A1 *250:99 5.33483e-06
46 *1091:A1 *271:76 8.19642e-06
47 *136:10 *181:23 0.000165043
48 *136:10 *271:72 8.30566e-06
49 *136:10 *310:20 9.34636e-05
50 *136:29 *1087:A 5.97612e-05
51 *136:29 *1090:A1 0.000394994
52 *136:29 *185:10 1.32939e-05
53 *136:29 *271:72 1.3822e-05
54 *136:29 *310:20 9.96103e-05
55 *136:40 *1024:A1 0
56 *136:40 *138:20 3.47781e-05
57 *136:40 *185:10 8.7283e-06
58 *136:40 *303:33 0
59 *136:40 *331:6 0.000221079
60 *136:40 *348:14 0.000302339
61 *136:40 *362:20 0.000125488
62 *136:55 *138:12 4.08664e-05
63 *136:55 *144:10 5.41288e-05
64 *136:55 *298:36 0.000490604
65 *136:55 *303:33 7.02841e-05
66 *136:55 *337:10 0.000357939
67 *136:74 *279:10 0.000167443
68 *136:74 *279:25 0.000343932
69 *136:74 *288:10 6.21304e-05
70 *136:74 *288:12 3.60304e-05
71 *136:74 *298:36 0.000808364
72 *136:74 *303:33 0.00020902
73 *136:89 *1016:A1 0.00018039
74 *136:89 *279:25 2.60152e-05
75 *136:89 *280:10 4.07715e-05
76 *136:89 *288:10 8.51432e-05
77 *136:89 *289:8 8.85189e-05
78 *136:89 *298:44 0
79 *136:95 *1013:S 0
80 *136:95 *1016:A0 1.32939e-05
81 *136:95 *137:8 4.08641e-05
82 *136:95 *138:47 0
83 *136:95 *138:49 0
84 *136:95 *141:10 8.16253e-05
85 *136:95 *244:10 0
86 *136:95 *264:70 0.000353849
87 *136:95 *281:25 0
88 *136:95 *307:21 0.000303049
89 *136:103 *1041:B2 0
90 *136:103 *264:46 4.81497e-05
91 *136:103 *283:12 0.00114592
92 *136:103 *315:8 2.5415e-05
93 *136:103 *317:8 8.85189e-05
94 *136:120 *1041:B2 0
95 *136:120 *264:46 9.67547e-05
96 SDO *136:103 0.00010018
97 *8:9 *136:103 0
98 *84:8 *136:95 0
99 *89:8 *136:89 0.000168754
100 *90:8 *136:95 0.000193388
101 *130:8 *136:95 0
*RES
1 *1010:X *136:10 41.2314 
2 *136:10 *1091:A1 38.5334 
3 *136:10 *136:29 23.3686 
4 *136:29 *1090:A2 23 
5 *136:29 *136:40 38.3243 
6 *136:40 *136:42 15 
7 *136:42 *1024:S 24.0979 
8 *136:42 *136:55 24.9636 
9 *136:55 *1028:S 39.6157 
10 *136:55 *136:74 13.9407 
11 *136:74 *1020:S 46.7207 
12 *136:74 *136:89 26.2064 
13 *136:89 *136:95 45.595 
14 *136:95 *136:97 15 
15 *136:97 *136:103 31.3746 
16 *136:103 *1036:S 41.0139 
17 *136:103 *136:120 2.78607 
18 *136:120 *1032:S 49.0614 
19 *136:120 *1040:B 38.6214 
20 *136:97 *1011:S 25.5479 
21 *136:89 *1016:S 23.4971 
*END

*D_NET *137 0.000277232
*CONN
*I *1013:A0 I *D sky130_fd_sc_hd__mux2_1
*I *1011:X O *D sky130_fd_sc_hd__mux2_1
*CAP
1 *1013:A0 4.11547e-05
2 *1011:X 6.55146e-05
3 *137:8 0.000106669
4 *1013:A0 *343:6 2.30292e-05
5 *136:95 *137:8 4.08641e-05
*RES
1 *1011:X *137:8 39.2014 
2 *137:8 *1013:A0 38.6214 
*END

*D_NET *138 0.0178285
*CONN
*I *1029:S I *D sky130_fd_sc_hd__mux2_1
*I *1025:S I *D sky130_fd_sc_hd__mux2_1
*I *1017:S I *D sky130_fd_sc_hd__mux2_1
*I *1013:S I *D sky130_fd_sc_hd__mux2_1
*I *1040:A I *D sky130_fd_sc_hd__nor2_1
*I *1041:A2 I *D sky130_fd_sc_hd__a22o_1
*I *1037:S I *D sky130_fd_sc_hd__mux2_1
*I *1033:S I *D sky130_fd_sc_hd__mux2_1
*I *1167:B1 I *D sky130_fd_sc_hd__o21a_1
*I *1021:S I *D sky130_fd_sc_hd__mux2_1
*I *1012:Y O *D sky130_fd_sc_hd__nand2_4
*CAP
1 *1029:S 4.08777e-05
2 *1025:S 5.85199e-05
3 *1017:S 0.000506607
4 *1013:S 0.000125997
5 *1040:A 2.00578e-05
6 *1041:A2 4.01155e-05
7 *1037:S 0.000102416
8 *1033:S 0.000163105
9 *1167:B1 0.000599101
10 *1021:S 7.33072e-05
11 *1012:Y 0.000588043
12 *138:63 0.00101499
13 *138:59 0.000596578
14 *138:55 0.000375717
15 *138:53 0.000573935
16 *138:49 0.00101151
17 *138:47 0.00162602
18 *138:32 0.00194197
19 *138:26 0.00136827
20 *138:20 0.00039596
21 *138:12 0.000808477
22 *1013:S *275:21 0
23 *1017:S *1017:A1 1.94812e-05
24 *1017:S *141:10 0.000303931
25 *1017:S *281:10 1.94693e-05
26 *1021:S *241:24 4.70534e-05
27 *1025:S *1351:A 4.41403e-05
28 *1029:S *1029:A1 6.17437e-06
29 *1033:S *264:29 1.59071e-05
30 *1033:S *277:45 0.000182055
31 *1037:S *1041:B2 0
32 *1037:S *276:23 7.80354e-05
33 *1167:B1 *148:8 0.000111852
34 *1167:B1 *262:35 3.30197e-05
35 *1167:B1 *264:12 0
36 *1167:B1 *264:87 0
37 *1167:B1 *268:73 0
38 *1167:B1 *314:8 0
39 *1167:B1 *319:8 0
40 *1167:B1 *359:119 0.000146195
41 *138:12 *1024:A1 0.000227208
42 *138:12 *1030:A 0.000175847
43 *138:12 *356:44 6.29487e-05
44 *138:20 *1024:A1 0
45 *138:20 *1029:A1 7.15126e-05
46 *138:20 *144:10 7.03766e-05
47 *138:20 *147:8 4.334e-05
48 *138:20 *303:33 0
49 *138:26 *144:10 0.000401825
50 *138:26 *303:33 0.000404996
51 *138:32 *1231:A 5.91279e-05
52 *138:32 *1232:A 0.000141142
53 *138:32 *1351:A 0.000618461
54 *138:32 *142:10 0.000296026
55 *138:32 *263:32 3.83778e-05
56 *138:32 *263:47 0.000459797
57 *138:47 *141:10 8.06039e-05
58 *138:47 *142:10 8.62783e-05
59 *138:47 *242:14 8.16253e-05
60 *138:47 *252:12 0
61 *138:47 *325:10 0
62 *138:49 *242:14 0.000108569
63 *138:49 *264:70 0.000116224
64 *138:49 *275:21 0
65 *138:53 *330:6 9.60509e-05
66 *138:55 *330:6 5.79042e-05
67 *138:59 *330:6 2.30292e-05
68 *138:63 *1032:A0 0
69 *138:63 *1041:B2 0
70 *138:63 *148:8 0.000302339
71 *138:63 *152:20 0
72 *138:63 *264:87 0
73 *138:63 *276:23 3.70187e-05
74 *1024:S *138:12 9.84794e-05
75 *1032:S *138:59 0.00012012
76 *1039:A *138:53 4.05196e-05
77 *1039:B *138:49 0
78 *1039:B *138:53 0.000128401
79 *1040:B *138:55 2.93845e-05
80 *1276:RESET_B *138:32 0
81 *41:10 *1167:B1 0
82 *84:8 *1013:S 0
83 *123:10 *138:53 1.32314e-05
84 *123:10 *138:55 0.000139357
85 *125:10 *1167:B1 0
86 *126:10 *138:12 8.38096e-05
87 *134:60 *138:32 0
88 *134:60 *138:47 0
89 *134:119 *138:49 0
90 *136:40 *138:20 3.47781e-05
91 *136:55 *138:12 4.08664e-05
92 *136:95 *1013:S 0
93 *136:95 *138:47 0
94 *136:95 *138:49 0
*RES
1 *1012:Y *138:12 36.6714 
2 *138:12 *138:20 34.5364 
3 *138:20 *138:26 35.4271 
4 *138:26 *138:32 41.3693 
5 *138:32 *1021:S 39.6157 
6 *138:32 *138:47 12.1179 
7 *138:47 *138:49 9.30071 
8 *138:49 *138:53 24.1971 
9 *138:53 *138:55 2.52714 
10 *138:55 *138:59 19.9093 
11 *138:59 *138:63 6.04857 
12 *138:63 *1167:B1 49.3514 
13 *138:63 *1033:S 40.9 
14 *138:59 *1037:S 40.2579 
15 *138:55 *1041:A2 23.8493 
16 *138:53 *1040:A 23.8493 
17 *138:49 *1013:S 40.2579 
18 *138:47 *1017:S 48.295 
19 *138:26 *1025:S 24.1186 
20 *138:20 *1029:S 23.6214 
*END

*D_NET *139 0.000180089
*CONN
*I *1014:A I *D sky130_fd_sc_hd__clkbuf_1
*I *1013:X O *D sky130_fd_sc_hd__mux2_1
*CAP
1 *1014:A 6.10667e-05
2 *1013:X 6.10667e-05
3 *1014:A *343:6 5.79559e-05
*RES
1 *1013:X *1014:A 47.4707 
*END

*D_NET *140 0.00103247
*CONN
*I *1017:A0 I *D sky130_fd_sc_hd__mux2_1
*I *1016:X O *D sky130_fd_sc_hd__mux2_1
*CAP
1 *1017:A0 0
2 *1016:X 0.000274857
3 *140:10 0.000274857
4 *140:10 *277:28 0
5 *140:10 *298:44 0.000382574
6 *140:10 *307:21 0.00010018
7 *132:59 *140:10 0
8 *132:93 *140:10 0
*RES
1 *1016:X *140:10 44.1729 
2 *140:10 *1017:A0 38 
*END

*D_NET *141 0.0015278
*CONN
*I *1018:A I *D sky130_fd_sc_hd__clkbuf_1
*I *1017:X O *D sky130_fd_sc_hd__mux2_1
*CAP
1 *1018:A 0
2 *1017:X 0.00053082
3 *141:10 0.00053082
4 *1017:S *141:10 0.000303931
5 *136:95 *141:10 8.16253e-05
6 *138:47 *141:10 8.06039e-05
*RES
1 *1017:X *141:10 46.5964 
2 *141:10 *1018:A 38 
*END

*D_NET *142 0.00106865
*CONN
*I *1021:A0 I *D sky130_fd_sc_hd__mux2_1
*I *1020:X O *D sky130_fd_sc_hd__mux2_1
*CAP
1 *1021:A0 0
2 *1020:X 0.000268042
3 *142:10 0.000268042
4 *142:10 *1020:A0 3.52383e-05
5 *142:10 *143:8 0
6 *142:10 *241:36 0.000115019
7 *142:10 *244:10 0
8 *138:32 *142:10 0.000296026
9 *138:47 *142:10 8.62783e-05
*RES
1 *1020:X *142:10 44.1729 
2 *142:10 *1021:A0 38 
*END

*D_NET *143 0.00032982
*CONN
*I *1022:A I *D sky130_fd_sc_hd__clkbuf_1
*I *1021:X O *D sky130_fd_sc_hd__mux2_1
*CAP
1 *1022:A 6.70762e-05
2 *1021:X 3.94271e-05
3 *143:8 0.000106503
4 *1022:A *342:10 7.87243e-05
5 *143:8 *241:36 1.83564e-05
6 *143:8 *244:10 0
7 *128:10 *1022:A 1.97325e-05
8 *142:10 *143:8 0
*RES
1 *1021:X *143:8 38.8493 
2 *143:8 *1022:A 39.5743 
*END

*D_NET *144 0.00146907
*CONN
*I *1025:A0 I *D sky130_fd_sc_hd__mux2_1
*I *1024:X O *D sky130_fd_sc_hd__mux2_1
*CAP
1 *1025:A0 0
2 *1024:X 0.000349309
3 *144:10 0.000349309
4 *144:10 *1024:A1 0
5 *144:10 *1296:A 0
6 *144:10 *146:8 8.62876e-05
7 *144:10 *277:28 6.95872e-05
8 *144:10 *303:33 8.82524e-05
9 *136:55 *144:10 5.41288e-05
10 *138:20 *144:10 7.03766e-05
11 *138:26 *144:10 0.000401825
*RES
1 *1024:X *144:10 46.99 
2 *144:10 *1025:A0 38 
*END

*D_NET *145 0.00095174
*CONN
*I *1026:A I *D sky130_fd_sc_hd__clkbuf_1
*I *1025:X O *D sky130_fd_sc_hd__mux2_1
*CAP
1 *1026:A 9.37445e-05
2 *1025:X 0.000189263
3 *145:8 0.000283007
4 *145:8 *277:28 0.000385726
5 *1276:RESET_B *145:8 0
6 *127:10 *145:8 0
*RES
1 *1025:X *145:8 43.075 
2 *145:8 *1026:A 39.5743 
*END

*D_NET *146 0.000392561
*CONN
*I *1029:A0 I *D sky130_fd_sc_hd__mux2_1
*I *1028:X O *D sky130_fd_sc_hd__mux2_1
*CAP
1 *1029:A0 4.5791e-05
2 *1028:X 3.55839e-05
3 *146:8 8.13749e-05
4 *1029:A0 *1029:A1 5.50049e-05
5 *146:8 *341:8 8.85189e-05
6 *144:10 *146:8 8.62876e-05
*RES
1 *1028:X *146:8 39.2014 
2 *146:8 *1029:A0 38.6214 
*END

*D_NET *147 0.000997115
*CONN
*I *1030:A I *D sky130_fd_sc_hd__clkbuf_1
*I *1029:X O *D sky130_fd_sc_hd__mux2_1
*CAP
1 *1030:A 0.000293958
2 *1029:X 6.66531e-05
3 *147:8 0.000360611
4 *147:8 *1024:A1 0
5 *1024:S *1030:A 5.67058e-05
6 *138:12 *1030:A 0.000175847
7 *138:20 *147:8 4.334e-05
*RES
1 *1029:X *147:8 39.2014 
2 *147:8 *1030:A 44.2557 
*END

*D_NET *148 0.00117788
*CONN
*I *1033:A0 I *D sky130_fd_sc_hd__mux2_1
*I *1032:X O *D sky130_fd_sc_hd__mux2_1
*CAP
1 *1033:A0 7.956e-05
2 *1032:X 0.000232301
3 *148:8 0.000311861
4 *1033:A0 *264:29 0.000139969
5 *148:8 *152:20 0
6 *1167:B1 *148:8 0.000111852
7 *138:63 *148:8 0.000302339
*RES
1 *1032:X *148:8 43.4271 
2 *148:8 *1033:A0 39.5743 
*END

*D_NET *149 0.000570304
*CONN
*I *1034:A I *D sky130_fd_sc_hd__clkbuf_1
*I *1033:X O *D sky130_fd_sc_hd__mux2_1
*CAP
1 *1034:A 0.000160728
2 *1033:X 0.000160728
3 *1034:A *1230:A 4.00259e-06
4 *1034:A *264:29 0.000115574
5 *1034:A *264:38 7.42621e-05
6 *125:10 *1034:A 5.50106e-05
*RES
1 *1033:X *1034:A 49.9979 
*END

*D_NET *150 0.00043935
*CONN
*I *1037:A0 I *D sky130_fd_sc_hd__mux2_1
*I *1036:X O *D sky130_fd_sc_hd__mux2_1
*CAP
1 *1037:A0 0.00019537
2 *1036:X 0.00019537
3 *1037:A0 *1037:A1 4.86103e-05
*RES
1 *1036:X *1037:A0 49.3764 
*END

*D_NET *151 0.000797791
*CONN
*I *1038:A I *D sky130_fd_sc_hd__clkbuf_1
*I *1037:X O *D sky130_fd_sc_hd__mux2_1
*CAP
1 *1038:A 0
2 *1037:X 0.000398895
3 *151:8 0.000398895
*RES
1 *1037:X *151:8 30.1879 
2 *151:8 *1038:A 23 
*END

*D_NET *152 0.000890017
*CONN
*I *1041:B1 I *D sky130_fd_sc_hd__a22o_1
*I *1040:Y O *D sky130_fd_sc_hd__nor2_1
*CAP
1 *1041:B1 0
2 *1040:Y 9.47263e-05
3 *152:20 0.000276535
4 *152:10 0.000371261
5 *152:10 *264:46 8.4047e-05
6 *152:10 *330:6 5.3304e-05
7 *1032:S *152:10 1.01436e-05
8 *1032:S *152:20 0
9 *138:63 *152:20 0
10 *148:8 *152:20 0
*RES
1 *1040:Y *152:10 39.8229 
2 *152:10 *152:20 49.0807 
3 *152:20 *1041:B1 23 
*END

*D_NET *153 0.000551455
*CONN
*I *1044:A I *D sky130_fd_sc_hd__buf_2
*I *1043:X O *D sky130_fd_sc_hd__and3_1
*CAP
1 *1044:A 0
2 *1043:X 0.000156878
3 *153:10 0.000156878
4 *153:10 *1043:C 5.26733e-06
5 *153:10 *154:14 6.01083e-05
6 *153:10 *270:75 1.14452e-05
7 *153:10 *270:92 0.000160877
*RES
1 *1043:X *153:10 40.8793 
2 *153:10 *1044:A 38 
*END

*D_NET *154 0.0171042
*CONN
*I *1045:C1 I *D sky130_fd_sc_hd__o211a_1
*I *1157:B2 I *D sky130_fd_sc_hd__a22o_1
*I *1158:A3 I *D sky130_fd_sc_hd__a31o_1
*I *1159:A4 I *D sky130_fd_sc_hd__a41o_1
*I *1148:B I *D sky130_fd_sc_hd__nand2_1
*I *1164:A2 I *D sky130_fd_sc_hd__a22o_1
*I *1160:B1 I *D sky130_fd_sc_hd__o32a_1
*I *1110:C1 I *D sky130_fd_sc_hd__o311a_1
*I *1044:X O *D sky130_fd_sc_hd__buf_2
*CAP
1 *1045:C1 0.000324532
2 *1157:B2 3.83602e-05
3 *1158:A3 0.000169428
4 *1159:A4 0
5 *1148:B 1.17411e-05
6 *1164:A2 0
7 *1160:B1 0
8 *1110:C1 1.95323e-05
9 *1044:X 4.65439e-05
10 *154:108 0.000195251
11 *154:96 0.00124041
12 *154:77 0.000959006
13 *154:70 0.000272597
14 *154:60 0.000358954
15 *154:53 0.00015401
16 *154:40 0.000665632
17 *154:24 0.00238237
18 *154:20 0.00204118
19 *154:14 0.00142666
20 *154:8 0.000742936
21 *1045:C1 *1157:A2 0
22 *1110:C1 *1110:B1 5.79559e-05
23 *1157:B2 *1157:A1 4.00259e-06
24 *1158:A3 *1056:A 0.000187968
25 *1158:A3 *163:8 3.39928e-05
26 *1158:A3 *335:10 4.38999e-05
27 *1158:A3 *352:20 0.000500002
28 *154:8 *1252:CLK 0.000136738
29 *154:8 *250:99 0.000138444
30 *154:14 *234:10 0
31 *154:14 *248:79 0
32 *154:14 *270:92 7.83687e-05
33 *154:14 *293:135 0.000228714
34 *154:20 *1157:A1 2.98648e-05
35 *154:20 *1157:B1 0.000140259
36 *154:24 *1154:A2 0.000438474
37 *154:24 *1157:A1 3.7122e-06
38 *154:24 *193:14 0.000234403
39 *154:40 *1111:B1 0.000191276
40 *154:40 *1163:B 8.16757e-06
41 *154:40 *159:21 0.000284665
42 *154:40 *176:38 3.8696e-05
43 *154:40 *186:22 0.000139357
44 *154:40 *186:28 0.000116985
45 *154:40 *191:14 0.000139432
46 *154:40 *200:10 9.70839e-05
47 *154:40 *237:29 8.4047e-05
48 *154:53 *1100:C 0.000122095
49 *154:53 *191:14 0.000136746
50 *154:53 *192:16 1.14452e-05
51 *154:53 *237:29 0.000299187
52 *154:60 *1160:B2 1.14154e-05
53 *154:70 *1160:A2 1.21972e-05
54 *154:70 *1160:A3 9.5877e-05
55 *154:70 *1160:B2 2.93747e-05
56 *154:70 *1270:CLK 5.3304e-05
57 *154:70 *1271:CLK 0.000366759
58 *154:70 *192:16 0.000108681
59 *154:70 *230:23 0.000134279
60 *154:70 *237:29 9.64943e-05
61 *154:70 *247:22 2.31591e-05
62 *154:70 *267:23 3.47781e-05
63 *154:77 *1160:A2 2.4254e-05
64 *154:77 *1160:A3 1.32314e-05
65 *154:77 *230:6 4.17736e-05
66 *154:77 *357:96 5.3304e-05
67 *154:96 *1160:A2 7.06229e-05
68 *154:96 *230:23 0
69 *154:96 *237:29 0
70 *154:96 *352:20 0.000269769
71 *154:96 *355:25 0
72 *154:108 *1159:A2 0.000110922
73 *154:108 *1159:A3 3.07986e-05
74 *154:108 *1159:B1 0.000144501
75 *154:108 *355:25 0.000137173
76 *154:108 *355:48 2.67935e-05
77 *1266:RESET_B *154:24 4.70852e-05
78 *1292:A *1158:A3 2.02517e-05
79 *64:8 *154:14 0
80 *92:10 *1045:C1 2.30292e-05
81 *92:10 *154:20 6.12571e-05
82 *109:8 *154:14 2.79004e-05
83 *153:10 *154:14 6.01083e-05
*RES
1 *1044:X *154:8 39.5743 
2 *154:8 *154:14 29.3757 
3 *154:14 *154:20 6.50429 
4 *154:20 *154:24 35.6314 
5 *154:24 *154:40 43.8164 
6 *154:40 *1110:C1 38.6214 
7 *154:24 *154:53 19.0186 
8 *154:53 *1160:B1 23 
9 *154:53 *154:60 0.497143 
10 *154:60 *154:70 37.6229 
11 *154:70 *1164:A2 23 
12 *154:60 *154:77 1.57429 
13 *154:77 *1148:B 23.4971 
14 *154:77 *154:96 46.6129 
15 *154:96 *154:108 34.5986 
16 *154:108 *1159:A4 23 
17 *154:96 *1158:A3 29.235 
18 *154:20 *1157:B2 23.8493 
19 *154:14 *1045:C1 28.8829 
*END

*D_NET *155 0.0158747
*CONN
*I *1052:A2 I *D sky130_fd_sc_hd__a32o_1
*I *1159:A3 I *D sky130_fd_sc_hd__a41o_1
*I *1158:A2 I *D sky130_fd_sc_hd__a31o_1
*I *1154:A2 I *D sky130_fd_sc_hd__a31o_1
*I *1058:A3 I *D sky130_fd_sc_hd__a41o_1
*I *1165:B2 I *D sky130_fd_sc_hd__a2bb2o_1
*I *1057:A3 I *D sky130_fd_sc_hd__a31oi_1
*I *1079:A1 I *D sky130_fd_sc_hd__a31o_1
*I *1078:B1 I *D sky130_fd_sc_hd__a21oi_1
*I *1086:B2 I *D sky130_fd_sc_hd__o221ai_1
*I *1046:X O *D sky130_fd_sc_hd__clkbuf_4
*CAP
1 *1052:A2 0
2 *1159:A3 0.000341203
3 *1158:A2 0
4 *1154:A2 0.000196286
5 *1058:A3 2.30556e-05
6 *1165:B2 0.000341884
7 *1057:A3 0
8 *1079:A1 0.000158319
9 *1078:B1 0
10 *1086:B2 0
11 *1046:X 0.000151897
12 *155:125 0.00111027
13 *155:104 0.00112109
14 *155:96 0.000784195
15 *155:77 0.00077293
16 *155:55 0.000497206
17 *155:51 0.00040973
18 *155:26 0.00041099
19 *155:18 0.000605009
20 *155:10 0.000920129
21 *155:6 0.000852679
22 *1079:A1 *1079:A3 2.93845e-05
23 *1079:A1 *1080:A3 0
24 *1079:A1 *1080:B1 1.24376e-05
25 *1079:A1 *161:16 3.22879e-05
26 *1079:A1 *161:37 1.22822e-05
27 *1159:A3 *1159:A2 0
28 *1159:A3 *1159:B1 4.57984e-05
29 *1159:A3 *240:8 3.56215e-05
30 *1165:B2 *163:22 6.84986e-05
31 *1165:B2 *250:83 5.02976e-05
32 *155:6 *251:53 0.000119207
33 *155:6 *293:86 0.000531784
34 *155:6 *357:25 2.18888e-05
35 *155:10 *1076:B 8.85189e-05
36 *155:10 *1078:A2 0
37 *155:10 *174:30 0.000196681
38 *155:10 *174:32 0.000182863
39 *155:10 *176:21 0
40 *155:10 *272:8 8.02348e-05
41 *155:10 *273:42 0
42 *155:10 *274:44 0.000192447
43 *155:18 *1076:B 0.000111729
44 *155:18 *1078:A1 9.75779e-05
45 *155:18 *1078:A2 0.000141954
46 *155:18 *272:8 0.000166522
47 *155:18 *274:19 0
48 *155:26 *1076:A 4.07715e-05
49 *155:26 *1076:B 0.000193258
50 *155:26 *1078:A2 5.67058e-05
51 *155:26 *251:53 0.000279936
52 *155:51 *251:53 0.00011262
53 *155:51 *293:86 0.000475672
54 *155:55 *1221:B 6.79006e-05
55 *155:55 *156:40 2.82105e-05
56 *155:55 *162:45 0
57 *155:55 *163:22 5.11935e-06
58 *155:55 *193:20 0
59 *155:55 *251:61 2.19236e-05
60 *155:55 *274:44 0
61 *155:77 *293:86 0.000306176
62 *155:96 *1058:A1 5.3304e-05
63 *155:96 *1058:A2 8.06804e-06
64 *155:96 *1153:A3 0.000181306
65 *155:96 *156:93 0.000206046
66 *155:96 *157:46 0.000398358
67 *155:96 *157:50 0.00013185
68 *155:96 *158:14 2.60152e-05
69 *155:96 *160:10 7.91493e-05
70 *155:96 *261:8 4.88602e-05
71 *155:96 *266:74 0
72 *155:96 *271:93 2.49836e-05
73 *155:96 *293:86 0.000166411
74 *155:96 *293:101 8.21688e-05
75 *155:96 *354:48 5.58473e-05
76 *155:104 *1052:A1 2.93747e-05
77 *155:104 *1052:B1 1.24376e-05
78 *155:104 *187:6 7.44161e-06
79 *155:104 *261:8 0.000113153
80 *155:104 *293:118 0
81 *155:125 *163:22 0
82 *155:125 *193:33 1.22803e-05
83 *155:125 *261:8 0.000186015
84 *155:125 *261:42 0
85 *155:125 *354:78 8.72173e-05
86 *155:125 *359:12 0.000111852
87 *77:8 *1165:B2 0.000140949
88 *94:10 *1154:A2 4.86103e-05
89 *94:10 *155:125 3.62164e-05
90 *110:8 *155:26 0.000197479
91 *121:10 *155:104 3.21223e-05
92 *121:10 *155:125 2.22183e-05
93 *134:14 *1159:A3 0.000135547
94 *134:14 *155:125 0.000266948
95 *154:24 *1154:A2 0.000438474
96 *154:108 *1159:A3 3.07986e-05
*RES
1 *1046:X *155:6 28.8621 
2 *155:6 *155:10 26.7657 
3 *155:10 *155:18 19.8057 
4 *155:18 *155:26 40.005 
5 *155:26 *1086:B2 23 
6 *155:18 *1078:B1 23 
7 *155:10 *1079:A1 41.045 
8 *155:6 *155:51 5.38571 
9 *155:51 *155:55 18.3143 
10 *155:55 *1057:A3 38 
11 *155:55 *1165:B2 44.815 
12 *155:51 *155:77 3.48 
13 *155:77 *1058:A3 23.4971 
14 *155:77 *155:96 45.2871 
15 *155:96 *155:104 18.1486 
16 *155:104 *1154:A2 43.4064 
17 *155:104 *155:125 16.4679 
18 *155:125 *1158:A2 38 
19 *155:125 *1159:A3 43.3857 
20 *155:96 *1052:A2 23 
*END

*D_NET *156 0.013435
*CONN
*I *1087:D_N I *D sky130_fd_sc_hd__or4b_1
*I *1074:D1 I *D sky130_fd_sc_hd__o2111a_1
*I *1102:A I *D sky130_fd_sc_hd__xor2_1
*I *1094:A1 I *D sky130_fd_sc_hd__a21bo_1
*I *1054:B I *D sky130_fd_sc_hd__nand2b_2
*I *1162:C I *D sky130_fd_sc_hd__nand3_1
*I *1153:A1 I *D sky130_fd_sc_hd__o31a_1
*I *1049:A I *D sky130_fd_sc_hd__nor2_1
*I *1051:A2 I *D sky130_fd_sc_hd__a211o_1
*I *1057:A2 I *D sky130_fd_sc_hd__a31oi_1
*I *1047:X O *D sky130_fd_sc_hd__clkbuf_4
*CAP
1 *1087:D_N 0
2 *1074:D1 3.2189e-05
3 *1102:A 0.000191051
4 *1094:A1 0
5 *1054:B 0
6 *1162:C 0
7 *1153:A1 0
8 *1049:A 3.54787e-05
9 *1051:A2 0
10 *1057:A2 0
11 *1047:X 0.000278671
12 *156:128 0.000393173
13 *156:108 0.00035176
14 *156:95 0.00026286
15 *156:93 0.000909844
16 *156:79 0.000198507
17 *156:60 0.000418365
18 *156:51 0.000479033
19 *156:40 0.000425649
20 *156:24 0.000760416
21 *156:18 0.000114189
22 *156:16 0.0009084
23 *156:14 0.000447338
24 *156:10 0.000338394
25 *1049:A *1049:B 7.11158e-05
26 *1049:A *159:71 0
27 *1074:D1 *1074:C1 7.80701e-05
28 *1074:D1 *261:31 0.000144494
29 *1102:A *1094:A2 0.000443673
30 *1102:A *1102:B 0.000140935
31 *1102:A *266:36 0.000144501
32 *1102:A *270:24 7.27182e-05
33 *1102:A *270:28 0.000100733
34 *156:10 *187:14 0
35 *156:10 *310:20 0.000523797
36 *156:10 *354:10 0.000397455
37 *156:14 *1162:B 9.64943e-05
38 *156:16 *1162:B 0.000740388
39 *156:16 *164:10 8.17328e-05
40 *156:18 *1162:B 0.000175903
41 *156:18 *164:10 0.000163466
42 *156:24 *1162:B 5.65429e-05
43 *156:24 *163:22 5.76256e-06
44 *156:24 *164:10 5.56279e-05
45 *156:40 *1057:A1 7.51453e-06
46 *156:40 *163:22 3.3979e-05
47 *156:40 *193:20 2.26497e-05
48 *156:40 *236:12 0.000148583
49 *156:40 *251:61 2.7035e-05
50 *156:40 *271:110 1.05441e-05
51 *156:51 *1051:B1 9.41704e-05
52 *156:51 *159:50 2.11157e-05
53 *156:51 *160:10 2.43944e-05
54 *156:51 *163:22 0
55 *156:51 *193:20 0.000415143
56 *156:51 *236:12 1.20442e-05
57 *156:51 *271:110 4.90011e-05
58 *156:60 *1049:B 1.41077e-05
59 *156:60 *1051:B1 2.55238e-05
60 *156:60 *158:14 5.50049e-05
61 *156:60 *160:10 5.50106e-05
62 *156:60 *354:25 5.61255e-06
63 *156:60 *354:48 2.93747e-05
64 *156:79 *1049:B 1.21972e-05
65 *156:79 *1153:A2 1.12487e-05
66 *156:79 *158:14 5.3304e-05
67 *156:79 *158:27 0.000239683
68 *156:79 *293:118 9.5877e-05
69 *156:79 *305:16 9.5877e-05
70 *156:79 *305:24 0.000184825
71 *156:79 *354:25 1.95556e-05
72 *156:93 *157:46 0.000144403
73 *156:93 *161:93 5.15096e-05
74 *156:93 *162:14 6.21322e-05
75 *156:93 *164:10 2.07444e-05
76 *156:93 *266:74 0
77 *156:93 *271:93 0.000108681
78 *156:93 *293:101 6.00136e-06
79 *156:93 *305:24 0
80 *156:95 *161:93 0.000166513
81 *156:95 *305:24 0
82 *156:108 *161:93 1.22906e-05
83 *156:108 *270:32 6.48049e-05
84 *156:108 *270:52 8.4047e-05
85 *156:108 *305:24 0
86 *156:128 *157:27 0.000158796
87 *156:128 *162:30 4.80826e-05
88 *156:128 *313:19 0.000304686
89 *1075:A2 *156:10 5.50049e-05
90 *120:8 *156:93 0.000110922
91 *155:55 *156:40 2.82105e-05
92 *155:96 *156:93 0.000206046
*RES
1 *1047:X *156:10 45.8093 
2 *156:10 *156:14 16.0979 
3 *156:14 *156:16 8.24429 
4 *156:16 *156:18 2.05071 
5 *156:18 *156:24 16.1186 
6 *156:24 *156:40 33.9503 
7 *156:40 *1057:A2 23 
8 *156:24 *156:51 21.8771 
9 *156:51 *1051:A2 23 
10 *156:51 *156:60 3.85286 
11 *156:60 *1049:A 24.4707 
12 *156:60 *156:79 35.2821 
13 *156:79 *1153:A1 23 
14 *156:18 *1162:C 23 
15 *156:16 *156:93 23.9486 
16 *156:93 *156:95 2.25786 
17 *156:95 *1054:B 38 
18 *156:95 *156:108 18.2314 
19 *156:108 *1094:A1 23 
20 *156:108 *1102:A 29.815 
21 *156:93 *156:128 35.7379 
22 *156:128 *1074:D1 39.5743 
23 *156:14 *1087:D_N 23 
*END

*D_NET *157 0.00890611
*CONN
*I *1153:A3 I *D sky130_fd_sc_hd__o31a_1
*I *1051:C1 I *D sky130_fd_sc_hd__a211o_1
*I *1049:B I *D sky130_fd_sc_hd__nor2_1
*I *1075:A3 I *D sky130_fd_sc_hd__a32o_1
*I *1096:B I *D sky130_fd_sc_hd__and2_1
*I *1048:Y O *D sky130_fd_sc_hd__nand2_2
*CAP
1 *1153:A3 0.00017802
2 *1051:C1 0
3 *1049:B 8.2028e-05
4 *1075:A3 0.000397898
5 *1096:B 0.000127998
6 *1048:Y 4.66065e-05
7 *157:52 8.2028e-05
8 *157:50 0.000279986
9 *157:46 0.00075328
10 *157:27 0.0018777
11 *157:8 0.00100309
12 *1049:B *1051:B1 3.7681e-05
13 *1049:B *354:25 0.000137651
14 *1075:A3 *1075:B1 4.00259e-06
15 *1075:A3 *313:6 1.32939e-05
16 *1096:B *189:8 2.91395e-05
17 *1096:B *274:8 0
18 *1153:A3 *1052:A1 9.41704e-05
19 *1153:A3 *158:14 0.000110913
20 *1153:A3 *187:6 0.00021677
21 *1153:A3 *293:101 3.85446e-05
22 *1153:A3 *293:118 2.87723e-05
23 *1153:A3 *305:16 5.3304e-05
24 *157:8 *271:30 2.93335e-05
25 *157:27 *1101:B1 2.71502e-05
26 *157:27 *162:30 1.16734e-05
27 *157:27 *162:45 8.58779e-05
28 *157:27 *188:16 0.000197923
29 *157:27 *189:8 1.12863e-05
30 *157:27 *193:20 0.000264306
31 *157:27 *271:30 0
32 *157:27 *274:8 0
33 *157:27 *274:32 0
34 *157:27 *357:61 0
35 *157:46 *162:14 1.01436e-05
36 *157:46 *250:83 1.33535e-05
37 *157:46 *261:8 0.000837457
38 *157:50 *293:101 5.81577e-05
39 *1049:A *1049:B 7.11158e-05
40 *1075:A2 *1075:A3 0.000490979
41 *1075:A2 *157:46 0.000163466
42 *155:96 *1153:A3 0.000181306
43 *155:96 *157:46 0.000398358
44 *155:96 *157:50 0.00013185
45 *156:60 *1049:B 1.41077e-05
46 *156:79 *1049:B 1.21972e-05
47 *156:93 *157:46 0.000144403
48 *156:128 *157:27 0.000158796
*RES
1 *1048:Y *157:8 38.6214 
2 *157:8 *1096:B 40.2579 
3 *157:8 *157:27 30.0386 
4 *157:27 *1075:A3 29.7114 
5 *157:27 *157:46 45.0386 
6 *157:46 *157:50 16.9057 
7 *157:50 *157:52 15 
8 *157:52 *1049:B 25.5686 
9 *157:52 *1051:C1 23 
10 *157:50 *1153:A3 43.1371 
*END

*D_NET *158 0.00201648
*CONN
*I *1154:A3 I *D sky130_fd_sc_hd__a31o_1
*I *1052:A3 I *D sky130_fd_sc_hd__a32o_1
*I *1049:Y O *D sky130_fd_sc_hd__nor2_1
*CAP
1 *1154:A3 0
2 *1052:A3 0
3 *1049:Y 0
4 *158:27 0.000322078
5 *158:14 0.000185478
6 *158:4 0.000507556
7 *158:14 *1052:A1 5.50049e-05
8 *158:14 *293:101 0.00015795
9 *158:27 *1153:A2 0.000108681
10 *158:27 *266:74 5.3051e-05
11 *158:27 *351:10 0.000107242
12 *158:27 *354:25 5.14746e-06
13 *1153:A3 *158:14 0.000110913
14 *121:10 *158:14 2.93747e-05
15 *155:96 *158:14 2.60152e-05
16 *156:60 *158:14 5.50049e-05
17 *156:79 *158:14 5.3304e-05
18 *156:79 *158:27 0.000239683
*RES
1 *1049:Y *158:4 23 
2 *158:4 *158:14 33.9771 
3 *158:14 *1052:A3 23 
4 *158:4 *158:27 36.2971 
5 *158:27 *1154:A3 23 
*END

*D_NET *159 0.00923397
*CONN
*I *1051:B1 I *D sky130_fd_sc_hd__a211o_1
*I *1156:B1 I *D sky130_fd_sc_hd__o211a_1
*I *1087:B I *D sky130_fd_sc_hd__or4b_1
*I *1090:A1 I *D sky130_fd_sc_hd__o21ai_1
*I *1153:A2 I *D sky130_fd_sc_hd__o31a_1
*I *1111:B1 I *D sky130_fd_sc_hd__o21a_4
*I *1100:A I *D sky130_fd_sc_hd__and3_2
*I *1050:Y O *D sky130_fd_sc_hd__inv_2
*CAP
1 *1051:B1 0.000131382
2 *1156:B1 0
3 *1087:B 0
4 *1090:A1 0.000258351
5 *1153:A2 0.000129356
6 *1111:B1 0.000167329
7 *1100:A 7.47882e-05
8 *1050:Y 4.60886e-05
9 *159:77 0.000385724
10 *159:71 0.000426225
11 *159:50 0.00103755
12 *159:38 0.00140733
13 *159:21 0.00107757
14 *159:8 0.000364509
15 *1051:B1 *354:25 5.3304e-05
16 *1051:B1 *354:33 0.000208184
17 *1051:B1 *354:48 5.50049e-05
18 *1090:A1 *1087:A 9.67842e-05
19 *1090:A1 *1162:B 9.75779e-05
20 *1090:A1 *185:10 4.56338e-05
21 *1090:A1 *270:92 0.000105295
22 *1100:A *1100:C 3.36312e-06
23 *1100:A *359:26 3.0556e-05
24 *1153:A2 *187:6 5.3304e-05
25 *1153:A2 *305:16 5.3304e-05
26 *1153:A2 *305:24 2.02999e-05
27 *1153:A2 *351:10 0.000205045
28 *159:8 *186:22 5.56279e-05
29 *159:38 *354:33 0.000356602
30 *159:50 *163:22 0
31 *159:71 *1156:A2 1.14154e-05
32 *159:71 *1156:C1 0.0002778
33 *159:71 *354:25 5.91134e-05
34 *159:71 *356:27 9.72057e-06
35 *159:77 *310:12 5.55911e-05
36 *159:77 *310:20 0.000301419
37 *159:77 *354:10 0.000141879
38 *159:77 *354:21 0.000167443
39 *159:77 *354:59 6.48142e-05
40 *1049:A *159:71 0
41 *1049:B *1051:B1 3.7681e-05
42 *42:10 *1111:B1 2.93335e-05
43 *136:29 *1090:A1 0.000394994
44 *154:40 *1111:B1 0.000191276
45 *154:40 *159:21 0.000284665
46 *156:51 *1051:B1 9.41704e-05
47 *156:51 *159:50 2.11157e-05
48 *156:60 *1051:B1 2.55238e-05
49 *156:79 *1153:A2 1.12487e-05
50 *158:27 *1153:A2 0.000108681
*RES
1 *1050:Y *159:8 38.6214 
2 *159:8 *1100:A 39.5536 
3 *159:8 *159:21 4.64 
4 *159:21 *1111:B1 41.2314 
5 *159:21 *159:38 26.6 
6 *159:38 *159:50 33.1148 
7 *159:50 *1153:A2 41.4075 
8 *159:50 *159:71 21.38 
9 *159:71 *159:77 34.7229 
10 *159:77 *1090:A1 30.2086 
11 *159:77 *1087:B 23 
12 *159:71 *1156:B1 23 
13 *159:38 *1051:B1 26.5007 
*END

*D_NET *160 0.000786123
*CONN
*I *1052:B1 I *D sky130_fd_sc_hd__a32o_1
*I *1051:X O *D sky130_fd_sc_hd__a211o_1
*CAP
1 *1052:B1 1.672e-05
2 *1051:X 0.000204009
3 *160:10 0.000220729
4 *1052:B1 *187:6 7.15924e-06
5 *160:10 *261:8 0.000166513
6 *155:96 *160:10 7.91493e-05
7 *155:104 *1052:B1 1.24376e-05
8 *156:51 *160:10 2.43944e-05
9 *156:60 *160:10 5.50106e-05
*RES
1 *1051:X *160:10 41.8321 
2 *160:10 *1052:B1 38.2796 
*END

*D_NET *161 0.00711565
*CONN
*I *1055:A I *D sky130_fd_sc_hd__inv_2
*I *1101:A1 I *D sky130_fd_sc_hd__o21ai_1
*I *1085:A1 I *D sky130_fd_sc_hd__a21o_1
*I *1082:A2 I *D sky130_fd_sc_hd__a31o_1
*I *1076:A I *D sky130_fd_sc_hd__nand2_1
*I *1079:A2 I *D sky130_fd_sc_hd__a31o_1
*I *1054:Y O *D sky130_fd_sc_hd__nand2b_2
*CAP
1 *1055:A 0
2 *1101:A1 0
3 *1085:A1 0.000309937
4 *1082:A2 0.000100905
5 *1076:A 0.000185642
6 *1079:A2 0
7 *1054:Y 0
8 *161:93 0.000213702
9 *161:50 0.000506807
10 *161:39 0.000281607
11 *161:37 0.000605948
12 *161:16 0.000949981
13 *161:14 0.000545191
14 *161:4 0.000414861
15 *1076:A *175:8 0.000114083
16 *1076:A *179:10 7.76364e-06
17 *1076:A *181:12 0.000137788
18 *1076:A *251:53 3.71198e-05
19 *1082:A2 *1082:A3 4.79544e-05
20 *1082:A2 *1082:B1 2.96671e-05
21 *1082:A2 *273:38 0
22 *1085:A1 *1082:A1 2.27464e-05
23 *1085:A1 *1082:A3 8.60998e-05
24 *1085:A1 *1085:B1 0.000102389
25 *1085:A1 *165:22 1.01436e-05
26 *1085:A1 *181:12 0.000108978
27 *1085:A1 *251:53 1.16773e-05
28 *161:14 *193:20 0.000192031
29 *161:14 *270:32 1.19796e-05
30 *161:14 *270:52 2.11887e-05
31 *161:16 *1079:B1 0.000141954
32 *161:37 *1079:A3 1.32314e-05
33 *161:37 *1081:C_N 0.00018282
34 *161:37 *174:32 0.000114083
35 *161:37 *179:10 0.000140935
36 *161:37 *261:31 0.0002513
37 *161:37 *272:14 4.00259e-06
38 *161:37 *274:32 0
39 *161:50 *181:12 0.000224345
40 *161:50 *251:53 7.4878e-05
41 *161:93 *1287:A 8.18724e-05
42 *161:93 *162:14 1.01436e-05
43 *161:93 *193:20 1.62615e-05
44 *161:93 *261:8 5.62433e-05
45 *161:93 *270:52 9.84851e-05
46 *161:93 *313:19 4.96717e-05
47 *1075:A2 *161:93 9.75779e-05
48 *1079:A1 *161:16 3.22879e-05
49 *1079:A1 *161:37 1.22822e-05
50 *106:10 *161:14 1.40958e-05
51 *110:8 *1076:A 0.000171906
52 *112:10 *1076:A 0
53 *155:26 *1076:A 4.07715e-05
54 *156:93 *161:93 5.15096e-05
55 *156:95 *161:93 0.000166513
56 *156:108 *161:93 1.22906e-05
*RES
1 *1054:Y *161:4 23 
2 *161:4 *161:14 33.9771 
3 *161:14 *161:16 6.815 
4 *161:16 *1079:A2 23 
5 *161:16 *161:37 41.9107 
6 *161:37 *161:39 15 
7 *161:39 *1076:A 43.075 
8 *161:39 *161:50 2.96214 
9 *161:50 *1082:A2 40.0921 
10 *161:50 *1085:A1 43.0543 
11 *161:14 *1101:A1 23 
12 *161:4 *161:93 36.0071 
13 *161:93 *1055:A 23 
*END

*D_NET *162 0.00436396
*CONN
*I *1058:A4 I *D sky130_fd_sc_hd__a41o_1
*I *1081:B I *D sky130_fd_sc_hd__or3b_1
*I *1055:Y O *D sky130_fd_sc_hd__inv_2
*CAP
1 *1058:A4 0
2 *1081:B 0
3 *1055:Y 0.000194687
4 *162:45 0.000303088
5 *162:30 0.000542515
6 *162:18 0.000906927
7 *162:14 0.000256011
8 *162:14 *261:8 6.25068e-05
9 *162:18 *313:19 0.000125544
10 *162:30 *173:10 0.000186385
11 *162:30 *261:31 0.000789543
12 *162:30 *313:19 0.000185371
13 *162:45 *193:20 0.0002808
14 *1075:A2 *162:14 0.000139352
15 *1075:A2 *162:18 6.70361e-05
16 *1075:A2 *162:30 9.61399e-05
17 *155:55 *162:45 0
18 *156:93 *162:14 6.21322e-05
19 *156:128 *162:30 4.80826e-05
20 *157:27 *162:30 1.16734e-05
21 *157:27 *162:45 8.58779e-05
22 *157:46 *162:14 1.01436e-05
23 *161:93 *162:14 1.01436e-05
*RES
1 *1055:Y *162:14 41.5421 
2 *162:14 *162:18 16.5743 
3 *162:18 *162:30 43.5264 
4 *162:30 *1081:B 23 
5 *162:18 *162:45 36.5457 
6 *162:45 *1058:A4 23 
*END

*D_NET *163 0.00456963
*CONN
*I *1159:A2 I *D sky130_fd_sc_hd__a41o_1
*I *1057:B1 I *D sky130_fd_sc_hd__a31oi_1
*I *1056:Y O *D sky130_fd_sc_hd__inv_2
*CAP
1 *1159:A2 0.000126283
2 *1057:B1 0
3 *1056:Y 0.000113295
4 *163:22 0.00135036
5 *163:8 0.00158994
6 *1159:A2 *354:78 0
7 *1159:A2 *355:25 5.19173e-05
8 *163:22 *1057:A1 6.85038e-06
9 *163:22 *1299:A 0.000273614
10 *163:22 *164:10 1.13759e-05
11 *163:22 *193:20 0
12 *163:22 *193:33 0
13 *163:22 *236:12 2.02588e-05
14 *163:22 *271:110 1.00446e-05
15 *163:22 *355:10 4.74809e-05
16 *163:22 *355:25 0.000318084
17 *163:22 *359:12 0
18 *1158:A3 *163:8 3.39928e-05
19 *1159:A3 *1159:A2 0
20 *1165:B2 *163:22 6.84986e-05
21 *77:8 *163:22 0.000200692
22 *81:10 *163:22 0.000191157
23 *133:90 *163:22 0
24 *154:108 *1159:A2 0.000110922
25 *155:55 *163:22 5.11935e-06
26 *155:125 *163:22 0
27 *156:24 *163:22 5.76256e-06
28 *156:40 *163:22 3.3979e-05
29 *156:51 *163:22 0
30 *159:50 *163:22 0
*RES
1 *1056:Y *163:8 39.5743 
2 *163:8 *163:22 42.4982 
3 *163:22 *1057:B1 23 
4 *163:8 *1159:A2 40.9621 
*END

*D_NET *164 0.00191057
*CONN
*I *1058:B1 I *D sky130_fd_sc_hd__a41o_1
*I *1057:Y O *D sky130_fd_sc_hd__a31oi_1
*CAP
1 *1058:B1 5.39507e-05
2 *1057:Y 0.000493826
3 *164:10 0.000547777
4 *1058:B1 *1058:A1 5.3304e-05
5 *1058:B1 *1058:A2 4.96717e-05
6 *1058:B1 *271:76 2.18409e-05
7 *1058:B1 *293:101 9.84851e-05
8 *164:10 *1057:A1 2.60619e-05
9 *164:10 *1162:B 1.59071e-05
10 *164:10 *271:93 8.4047e-05
11 *164:10 *293:101 0.000132749
12 *156:16 *164:10 8.17328e-05
13 *156:18 *164:10 0.000163466
14 *156:24 *164:10 5.56279e-05
15 *156:93 *164:10 2.07444e-05
16 *163:22 *164:10 1.13759e-05
*RES
1 *1057:Y *164:10 45.2914 
2 *164:10 *1058:B1 39.5743 
*END

*D_NET *165 0.00712653
*CONN
*I *1325:A I *D sky130_fd_sc_hd__buf_2
*I *1060:S I *D sky130_fd_sc_hd__mux2_1
*I *1062:S I *D sky130_fd_sc_hd__mux2_1
*I *1059:Y O *D sky130_fd_sc_hd__nor3b_2
*CAP
1 *1325:A 0
2 *1060:S 0
3 *1062:S 0
4 *1059:Y 0.000241259
5 *165:52 0.000259248
6 *165:34 0.000343391
7 *165:28 0.000956762
8 *165:22 0.00110236
9 *165:8 0.000989493
10 *165:8 *1084:A 2.70366e-05
11 *165:8 *176:38 0
12 *165:8 *251:53 0
13 *165:8 *293:44 0
14 *165:8 *293:86 5.31444e-05
15 *165:8 *357:25 3.21327e-05
16 *165:8 *357:31 3.84694e-05
17 *165:22 *1082:A1 0.00010457
18 *165:22 *1082:A3 9.5877e-05
19 *165:22 *1084:A 1.14452e-05
20 *165:22 *180:10 9.65715e-05
21 *165:22 *181:12 8.67667e-05
22 *165:28 *1060:A1 0.000270682
23 *165:28 *180:10 0.000565437
24 *165:28 *248:20 0.000576233
25 *165:28 *249:29 0
26 *165:28 *250:18 0
27 *165:28 *301:23 0.000319689
28 *165:34 *249:29 0
29 *165:34 *265:37 0
30 *165:52 *176:21 5.58975e-06
31 *165:52 *176:38 7.67825e-05
32 *165:52 *181:12 0
33 *165:52 *357:61 0.000319683
34 odata[6] *165:34 0
35 *1085:A1 *165:22 1.01436e-05
36 *133:32 *165:28 0.000543765
*RES
1 *1059:Y *165:8 43.075 
2 *165:8 *165:22 39.5079 
3 *165:22 *165:28 35.9214 
4 *165:28 *165:34 35.7793 
5 *165:34 *1062:S 23 
6 *165:28 *1060:S 23 
7 *165:8 *165:52 36.09 
8 *165:52 *1325:A 38 
*END

*D_NET *166 0.000165162
*CONN
*I *1302:A I *D sky130_fd_sc_hd__dlygate4sd3_1
*I *1060:X O *D sky130_fd_sc_hd__mux2_1
*CAP
1 *1302:A 8.25812e-05
2 *1060:X 8.25812e-05
3 *1302:A *1060:A0 0
*RES
1 *1060:X *1302:A 47.595 
*END

*D_NET *167 0.000390906
*CONN
*I *1063:A I *D sky130_fd_sc_hd__clkbuf_1
*I *1062:X O *D sky130_fd_sc_hd__mux2_1
*CAP
1 *1063:A 0
2 *1062:X 0.000136743
3 *167:10 0.000136743
4 *167:10 *1340:A 3.22879e-05
5 odata[6] *167:10 8.51329e-05
*RES
1 *1062:X *167:10 40.8793 
2 *167:10 *1063:A 38 
*END

*D_NET *168 0.000471798
*CONN
*I *1065:A I *D sky130_fd_sc_hd__clkbuf_1
*I *1064:X O *D sky130_fd_sc_hd__mux2_1
*CAP
1 *1065:A 0.0001098
2 *1064:X 0.0001098
3 *1065:A *1064:A0 0.000151483
4 *1065:A *300:12 3.22465e-05
5 *117:10 *1065:A 6.84697e-05
*RES
1 *1064:X *1065:A 49.8529 
*END

*D_NET *169 0.00049033
*CONN
*I *1067:A I *D sky130_fd_sc_hd__clkbuf_1
*I *1066:X O *D sky130_fd_sc_hd__mux2_1
*CAP
1 *1067:A 2.5164e-05
2 *1066:X 9.11901e-05
3 *169:8 0.000116354
4 *1067:A *1064:S 5.50106e-05
5 *169:8 *1064:S 0
6 *169:8 *297:12 0
7 *169:8 *299:26 0.000114092
8 *116:14 *169:8 8.85189e-05
*RES
1 *1066:X *169:8 40.2579 
2 *169:8 *1067:A 38.6214 
*END

*D_NET *170 0.000724848
*CONN
*I *1069:A I *D sky130_fd_sc_hd__clkbuf_1
*I *1068:X O *D sky130_fd_sc_hd__mux2_1
*CAP
1 *1069:A 7.77105e-05
2 *1068:X 0.000138597
3 *170:10 0.000216308
4 *1069:A *1213:A 0.000102163
5 *1069:A *251:114 4.9662e-05
6 *170:10 *1068:A0 5.41288e-05
7 *170:10 *250:146 7.48331e-05
8 *170:10 *250:152 1.14452e-05
9 *170:10 *313:41 0
*RES
1 *1068:X *170:10 40.2993 
2 *170:10 *1069:A 39.9471 
*END

*D_NET *171 0.00110239
*CONN
*I *1071:A I *D sky130_fd_sc_hd__clkbuf_1
*I *1070:X O *D sky130_fd_sc_hd__mux2_1
*CAP
1 *1071:A 0
2 *1070:X 0.000336972
3 *171:10 0.000336972
4 *171:10 *1215:B 9.48318e-05
5 *171:10 *251:80 0.000155059
6 *171:10 *251:82 0.000132665
7 *114:10 *171:10 4.58924e-05
*RES
1 *1070:X *171:10 44.6493 
2 *171:10 *1071:A 38 
*END

*D_NET *172 0.000340007
*CONN
*I *1073:A I *D sky130_fd_sc_hd__clkbuf_1
*I *1072:X O *D sky130_fd_sc_hd__mux2_1
*CAP
1 *1073:A 9.69051e-05
2 *1072:X 9.69051e-05
3 *1073:A *250:133 0.000146197
*RES
1 *1072:X *1073:A 48.4236 
*END

*D_NET *173 0.000949894
*CONN
*I *1075:B2 I *D sky130_fd_sc_hd__a32o_1
*I *1074:X O *D sky130_fd_sc_hd__o2111a_1
*CAP
1 *1075:B2 0
2 *1074:X 0.000315361
3 *173:10 0.000315361
4 *173:10 *261:31 4.65096e-05
5 *173:10 *273:72 8.62783e-05
6 *173:10 *274:44 0
7 *162:30 *173:10 0.000186385
*RES
1 *1074:X *173:10 42.9093 
2 *173:10 *1075:B2 38 
*END

*D_NET *174 0.00503618
*CONN
*I *1081:C_N I *D sky130_fd_sc_hd__or3b_1
*I *1079:A3 I *D sky130_fd_sc_hd__a31o_1
*I *1076:B I *D sky130_fd_sc_hd__nand2_1
*I *1085:A2 I *D sky130_fd_sc_hd__a21o_1
*I *1082:A3 I *D sky130_fd_sc_hd__a31o_1
*I *1075:X O *D sky130_fd_sc_hd__a32o_1
*CAP
1 *1081:C_N 4.31918e-05
2 *1079:A3 2.92021e-05
3 *1076:B 0.000468408
4 *1085:A2 1.58649e-05
5 *1082:A3 0.000165589
6 *1075:X 5.33283e-05
7 *174:32 0.000593475
8 *174:30 0.000251515
9 *174:8 0.000349433
10 *174:6 0.000333766
11 *1076:B *1078:A1 1.76557e-05
12 *1076:B *1078:A2 0.000183733
13 *1076:B *274:19 0
14 *1076:B *274:32 0
15 *1081:C_N *261:31 0.00018282
16 *1082:A3 *1082:B1 0.00015386
17 *1082:A3 *1085:B1 9.30018e-05
18 *1082:A3 *273:38 7.02996e-05
19 *1085:A2 *1085:B1 6.47714e-06
20 *174:6 *313:6 8.34394e-05
21 *174:8 *1085:B1 7.87147e-05
22 *174:8 *273:38 6.30591e-05
23 *174:8 *313:6 0.000265466
24 *174:30 *274:44 0.000186746
25 *174:32 *274:32 0
26 *174:32 *274:44 4.6318e-06
27 *1079:A1 *1079:A3 2.93845e-05
28 *1082:A2 *1082:A3 4.79544e-05
29 *1085:A1 *1082:A3 8.60998e-05
30 *155:10 *1076:B 8.85189e-05
31 *155:10 *174:30 0.000196681
32 *155:10 *174:32 0.000182863
33 *155:18 *1076:B 0.000111729
34 *155:26 *1076:B 0.000193258
35 *161:37 *1079:A3 1.32314e-05
36 *161:37 *1081:C_N 0.00018282
37 *161:37 *174:32 0.000114083
38 *165:22 *1082:A3 9.5877e-05
*RES
1 *1075:X *174:6 24.0979 
2 *174:6 *174:8 4.43286 
3 *174:8 *1082:A3 28.5514 
4 *174:8 *1085:A2 23.4971 
5 *174:6 *174:30 17.9621 
6 *174:30 *174:32 2.61 
7 *174:32 *1076:B 48.4193 
8 *174:32 *1079:A3 38.6214 
9 *174:30 *1081:C_N 40.0507 
*END

*D_NET *175 0.0012142
*CONN
*I *1080:A2 I *D sky130_fd_sc_hd__o31a_1
*I *1086:A2 I *D sky130_fd_sc_hd__o221ai_1
*I *1076:Y O *D sky130_fd_sc_hd__nand2_1
*CAP
1 *1080:A2 0.000185731
2 *1086:A2 4.09526e-05
3 *1076:Y 6.90834e-05
4 *175:10 0.000226684
5 *175:8 6.90834e-05
6 *1080:A2 *1080:A1 0.000235687
7 *1080:A2 *179:14 9.84851e-05
8 *1080:A2 *272:14 1.34914e-05
9 *1080:A2 *273:6 8.39049e-06
10 *1086:A2 *179:14 5.3304e-05
11 *175:8 *1078:A2 0
12 *1076:A *175:8 0.000114083
13 *112:10 *1080:A2 9.92279e-05
14 *112:10 *175:8 0
*RES
1 *1076:Y *175:8 39.5536 
2 *175:8 *175:10 15 
3 *175:10 *1086:A2 23.6214 
4 *175:10 *1080:A2 27.4329 
*END

*D_NET *176 0.00529529
*CONN
*I *1163:C I *D sky130_fd_sc_hd__or4_1
*I *1110:A3 I *D sky130_fd_sc_hd__o311a_1
*I *1085:B1 I *D sky130_fd_sc_hd__a21o_1
*I *1078:A2 I *D sky130_fd_sc_hd__a21oi_1
*I *1077:Y O *D sky130_fd_sc_hd__inv_2
*CAP
1 *1163:C 0.000110983
2 *1110:A3 0
3 *1085:B1 0.000151777
4 *1078:A2 0.000262237
5 *1077:Y 0.00017187
6 *176:38 0.000473949
7 *176:21 0.000826989
8 *176:8 0.000746353
9 *1078:A2 *177:8 8.85189e-05
10 *1078:A2 *179:10 0
11 *1078:A2 *272:8 0
12 *1078:A2 *272:29 1.46784e-05
13 *1163:C *1110:A1 0.000228164
14 *1163:C *1163:B 0.000230492
15 *1163:C *200:10 2.32004e-05
16 *1163:C *250:75 4.9515e-05
17 *176:8 *1077:A 0.000100061
18 *176:8 *1080:A1 1.59071e-05
19 *176:8 *272:14 9.77405e-05
20 *176:21 *181:12 0
21 *176:21 *272:29 5.7306e-05
22 *176:21 *273:23 0
23 *176:21 *273:42 8.21123e-05
24 *176:38 *1163:B 1.22803e-05
25 *176:38 *273:42 0.000609686
26 *1076:B *1078:A2 0.000183733
27 *1082:A3 *1085:B1 9.30018e-05
28 *1085:A1 *1085:B1 0.000102389
29 *1085:A2 *1085:B1 6.47714e-06
30 *112:10 *1078:A2 0.000157432
31 *154:40 *176:38 3.8696e-05
32 *155:10 *1078:A2 0
33 *155:10 *176:21 0
34 *155:18 *1078:A2 0.000141954
35 *155:26 *1078:A2 5.67058e-05
36 *165:8 *176:38 0
37 *165:52 *176:21 5.58975e-06
38 *165:52 *176:38 7.67825e-05
39 *174:8 *1085:B1 7.87147e-05
40 *175:8 *1078:A2 0
*RES
1 *1077:Y *176:8 40.5271 
2 *176:8 *1078:A2 44.0693 
3 *176:8 *176:21 5.075 
4 *176:21 *1085:B1 41.9979 
5 *176:21 *176:38 23.5964 
6 *176:38 *1110:A3 23 
7 *176:38 *1163:C 26.9564 
*END

*D_NET *177 0.00029453
*CONN
*I *1080:A3 I *D sky130_fd_sc_hd__o31a_1
*I *1078:Y O *D sky130_fd_sc_hd__a21oi_1
*CAP
1 *1080:A3 3.58234e-05
2 *1078:Y 4.47845e-05
3 *177:8 8.06079e-05
4 *1080:A3 *1080:A1 5.47983e-06
5 *1080:A3 *1080:B1 1.14154e-05
6 *177:8 *272:8 2.79004e-05
7 *1078:A2 *177:8 8.85189e-05
8 *1079:A1 *1080:A3 0
*RES
1 *1078:Y *177:8 39.2014 
2 *177:8 *1080:A3 38.8493 
*END

*D_NET *178 0.000294614
*CONN
*I *1080:B1 I *D sky130_fd_sc_hd__o31a_1
*I *1079:X O *D sky130_fd_sc_hd__a31o_1
*CAP
1 *1080:B1 0.00010143
2 *1079:X 0.00010143
3 *1080:B1 *1080:A1 7.86509e-06
4 *1080:B1 *272:14 6.00355e-05
5 *1079:A1 *1080:B1 1.24376e-05
6 *1080:A3 *1080:B1 1.14154e-05
*RES
1 *1079:X *1080:B1 48.0714 
*END

*D_NET *179 0.00322924
*CONN
*I *1086:B1 I *D sky130_fd_sc_hd__o221ai_1
*I *1083:A I *D sky130_fd_sc_hd__xnor2_1
*I *1081:X O *D sky130_fd_sc_hd__or3b_1
*CAP
1 *1086:B1 2.14194e-05
2 *1083:A 0
3 *1081:X 0.000223534
4 *179:26 0.000786611
5 *179:14 0.000937961
6 *179:10 0.000353464
7 *1086:B1 *1080:A1 0
8 *1086:B1 *1086:C1 5.90675e-06
9 *179:10 *182:8 0.000137788
10 *179:10 *272:29 0
11 *179:10 *273:23 8.4047e-05
12 *179:14 *1086:C1 0.000119477
13 *179:14 *273:6 1.40958e-05
14 *179:26 *1086:C1 5.12254e-05
15 *179:26 *248:20 0
16 *179:26 *249:29 5.61207e-05
17 *179:26 *273:6 0.000137103
18 *1076:A *179:10 7.76364e-06
19 *1078:A2 *179:10 0
20 *1080:A2 *179:14 9.84851e-05
21 *1086:A2 *179:14 5.3304e-05
22 *161:37 *179:10 0.000140935
*RES
1 *1081:X *179:10 41.8321 
2 *179:10 *179:14 18.0036 
3 *179:14 *179:26 42.9257 
4 *179:26 *1083:A 23 
5 *179:14 *1086:B1 23.4971 
*END

*D_NET *180 0.00246784
*CONN
*I *1083:B I *D sky130_fd_sc_hd__xnor2_1
*I *1082:X O *D sky130_fd_sc_hd__a31o_1
*CAP
1 *1083:B 0.000247801
2 *1082:X 0.000655116
3 *180:10 0.000902917
4 *180:10 *250:18 0
5 *165:22 *180:10 9.65715e-05
6 *165:28 *180:10 0.000565437
*RES
1 *1082:X *180:10 49.9729 
2 *180:10 *1083:B 41.9564 
*END

*D_NET *181 0.00794551
*CONN
*I *1091:A2 I *D sky130_fd_sc_hd__o21ai_1
*I *1086:A1 I *D sky130_fd_sc_hd__o221ai_1
*I *1084:Y O *D sky130_fd_sc_hd__nand2_1
*CAP
1 *1091:A2 0
2 *1086:A1 0
3 *1084:Y 8.40646e-05
4 *181:23 0.00220399
5 *181:12 0.000309606
6 *181:6 0.00259766
7 *181:6 *357:61 9.58714e-05
8 *181:12 *182:8 0.000350687
9 *181:12 *273:23 6.00922e-06
10 *181:23 *1264:CLK 0.00011451
11 *181:23 *266:53 4.99753e-06
12 *181:23 *266:61 0.000275509
13 *181:23 *271:72 0.000179419
14 *181:23 *310:20 4.52078e-05
15 *181:23 *354:10 2.93747e-05
16 *181:23 *357:61 0.000915526
17 *1076:A *181:12 0.000137788
18 *1085:A1 *181:12 0.000108978
19 *135:25 *181:23 1.01436e-05
20 *136:10 *181:23 0.000165043
21 *161:50 *181:12 0.000224345
22 *165:22 *181:12 8.67667e-05
23 *165:52 *181:12 0
24 *176:21 *181:12 0
*RES
1 *1084:Y *181:6 24.0979 
2 *181:6 *181:12 37.54 
3 *181:12 *1086:A1 23 
4 *181:6 *181:23 47.7493 
5 *181:23 *1091:A2 38 
*END

*D_NET *182 0.00173355
*CONN
*I *1086:C1 I *D sky130_fd_sc_hd__o221ai_1
*I *1085:X O *D sky130_fd_sc_hd__a21o_1
*CAP
1 *1086:C1 0.000138397
2 *1085:X 0.000180514
3 *182:8 0.000318911
4 *1086:C1 *1080:A1 2.02517e-05
5 *1086:C1 *273:6 0.000306338
6 *182:8 *273:23 0.000104051
7 *1086:B1 *1086:C1 5.90675e-06
8 *179:10 *182:8 0.000137788
9 *179:14 *1086:C1 0.000119477
10 *179:26 *1086:C1 5.12254e-05
11 *181:12 *182:8 0.000350687
*RES
1 *1085:X *182:8 42.7229 
2 *182:8 *1086:C1 42.4743 
*END

*D_NET *183 0.00147133
*CONN
*I *1088:S I *D sky130_fd_sc_hd__mux2_1
*I *1087:X O *D sky130_fd_sc_hd__or4b_1
*CAP
1 *1088:S 0.000172388
2 *1087:X 0.000273114
3 *183:8 0.000445502
4 *1088:S *1088:A1 9.67842e-05
5 *1088:S *293:118 1.57571e-05
6 *1088:S *356:10 8.17328e-05
7 *183:8 *1253:CLK 0.000274203
8 *183:8 *234:10 0.000111852
9 *183:8 *310:12 0
10 *183:8 *310:20 0
*RES
1 *1087:X *183:8 45.1879 
2 *183:8 *1088:S 41.0243 
*END

*D_NET *184 0.000292862
*CONN
*I *1089:A I *D sky130_fd_sc_hd__clkbuf_1
*I *1088:X O *D sky130_fd_sc_hd__mux2_1
*CAP
1 *1089:A 0
2 *1088:X 9.9953e-05
3 *184:8 9.9953e-05
4 *184:8 *234:10 5.21024e-05
5 *184:8 *310:12 0
6 *109:8 *184:8 4.08537e-05
*RES
1 *1088:X *184:8 39.9057 
2 *184:8 *1089:A 38 
*END

*D_NET *185 0.00134109
*CONN
*I *1091:B1 I *D sky130_fd_sc_hd__o21ai_1
*I *1090:Y O *D sky130_fd_sc_hd__o21ai_1
*CAP
1 *1091:B1 0
2 *1090:Y 0.000398173
3 *185:10 0.000398173
4 *185:10 *1087:A 8.62876e-05
5 *185:10 *1253:CLK 0.000124464
6 *185:10 *266:81 3.76959e-05
7 *185:10 *270:92 0.000135037
8 *185:10 *271:72 8.82299e-05
9 *185:10 *331:6 5.37348e-06
10 *1090:A1 *185:10 4.56338e-05
11 *136:29 *185:10 1.32939e-05
12 *136:40 *185:10 8.7283e-06
*RES
1 *1090:Y *185:10 44.6907 
2 *185:10 *1091:B1 38 
*END

*D_NET *186 0.0152996
*CONN
*I *1099:A I *D sky130_fd_sc_hd__inv_2
*I *1121:B1 I *D sky130_fd_sc_hd__a31o_1
*I *1131:A I *D sky130_fd_sc_hd__nor2_1
*I *1136:B1 I *D sky130_fd_sc_hd__a31o_1
*I *1132:A2 I *D sky130_fd_sc_hd__a22o_1
*I *1114:A I *D sky130_fd_sc_hd__clkbuf_4
*I *1126:B1 I *D sky130_fd_sc_hd__a21oi_1
*I *1127:A2 I *D sky130_fd_sc_hd__a22o_1
*I *1093:C I *D sky130_fd_sc_hd__or3_2
*I *1111:A1 I *D sky130_fd_sc_hd__o21a_4
*I *1092:X O *D sky130_fd_sc_hd__clkbuf_4
*CAP
1 *1099:A 0.000225859
2 *1121:B1 0
3 *1131:A 3.76787e-05
4 *1136:B1 0.000148015
5 *1132:A2 0
6 *1114:A 0.000444953
7 *1126:B1 0.000225586
8 *1127:A2 3.54823e-05
9 *1093:C 0
10 *1111:A1 0
11 *1092:X 0.000228428
12 *186:130 0.000610841
13 *186:101 0.000112193
14 *186:84 0.00106542
15 *186:80 0.000820619
16 *186:76 0.000461605
17 *186:57 0.000585368
18 *186:44 0.000550549
19 *186:40 0.00132106
20 *186:28 0.000178197
21 *186:22 0.00115524
22 *186:10 0.00172667
23 *1099:A *1164:A1 7.53384e-06
24 *1099:A *203:20 9.63509e-05
25 *1099:A *246:8 2.93747e-05
26 *1099:A *246:16 6.82416e-05
27 *1099:A *247:22 9.84851e-05
28 *1099:A *257:14 9.84851e-05
29 *1114:A *203:6 1.1669e-05
30 *1114:A *203:10 5.4862e-05
31 *1126:B1 *1126:A2 2.16583e-05
32 *1126:B1 *1140:A 0
33 *1126:B1 *197:18 0.000224402
34 *1126:B1 *213:10 0.000141954
35 *1126:B1 *257:88 1.37232e-05
36 *1126:B1 *257:90 9.16362e-05
37 *1127:A2 *1127:B2 1.37232e-05
38 *1127:A2 *256:41 5.50106e-05
39 *1127:A2 *352:10 2.93845e-05
40 *1131:A *254:58 8.6949e-05
41 *1136:B1 *1136:A1 0.000100061
42 *1136:B1 *253:69 5.40241e-05
43 *1136:B1 *254:28 2.29192e-05
44 *1136:B1 *254:71 1.06693e-05
45 *1136:B1 *255:32 4.6318e-06
46 *186:10 *1198:A 0
47 *186:10 *360:8 0
48 *186:10 *360:12 1.57322e-05
49 *186:10 *360:18 1.14876e-05
50 *186:22 *1198:B 0
51 *186:22 *357:77 9.90115e-05
52 *186:22 *357:88 0.000120866
53 *186:22 *359:40 8.06804e-06
54 *186:28 *191:14 6.16531e-05
55 *186:28 *200:10 2.08324e-05
56 *186:28 *237:10 9.48318e-05
57 *186:28 *237:29 0.000363877
58 *186:40 *201:20 0.000131169
59 *186:40 *201:40 4.95545e-05
60 *186:40 *257:26 0
61 *186:40 *258:8 0
62 *186:40 *360:8 0
63 *186:44 *201:40 8.94394e-05
64 *186:44 *201:53 0.00064159
65 *186:44 *203:32 4.334e-05
66 *186:44 *203:79 0
67 *186:44 *215:10 8.06039e-05
68 *186:44 *257:26 0
69 *186:44 *267:12 0
70 *186:57 *201:53 0.000181952
71 *186:57 *201:66 1.14452e-05
72 *186:57 *214:10 0.000140958
73 *186:57 *215:10 2.60152e-05
74 *186:76 *1171:A1 0
75 *186:76 *201:66 0.000203416
76 *186:76 *214:10 1.14452e-05
77 *186:76 *254:30 0
78 *186:76 *254:58 0.000319689
79 *186:80 *201:66 0
80 *186:80 *254:28 0.00010485
81 *186:101 *1130:B1 5.3304e-05
82 *186:101 *246:75 8.4047e-05
83 *186:101 *246:85 2.64616e-05
84 *186:101 *246:105 6.25829e-05
85 *186:101 *247:75 6.4393e-05
86 *186:130 *1121:A1 0.000181098
87 *186:130 *1122:A1_N 6.17437e-06
88 *186:130 *1122:A2_N 0.000230874
89 *186:130 *197:55 7.44161e-06
90 *186:130 *246:16 0
91 *186:130 *257:14 1.03836e-05
92 *186:130 *257:18 1.56665e-05
93 *1226:A *186:22 5.50106e-05
94 *57:12 *186:40 0
95 *82:12 *186:22 2.93747e-05
96 *102:10 *186:40 0
97 *131:10 *186:10 6.17437e-06
98 *131:76 *186:40 0
99 *131:84 *1099:A 5.3304e-05
100 *154:40 *186:22 0.000139357
101 *154:40 *186:28 0.000116985
102 *159:8 *186:22 5.56279e-05
*RES
1 *1092:X *186:10 41.3557 
2 *186:10 *186:22 32.8557 
3 *186:22 *186:28 36.1314 
4 *186:28 *1111:A1 23 
5 *186:22 *1093:C 23 
6 *186:10 *186:40 10.3571 
7 *186:40 *186:44 10.2743 
8 *186:44 *1127:A2 39.1186 
9 *186:44 *186:57 2.61 
10 *186:57 *1126:B1 43.7793 
11 *186:57 *186:76 21.4421 
12 *186:76 *186:80 19.0186 
13 *186:80 *186:84 20.8621 
14 *186:84 *1114:A 29.8357 
15 *186:84 *186:101 32.5271 
16 *186:101 *1132:A2 23 
17 *186:80 *1136:B1 41.0036 
18 *186:76 *1131:A 24.0979 
19 *186:40 *186:130 21.235 
20 *186:130 *1121:B1 23 
21 *186:130 *1099:A 28.8829 
*END

*D_NET *187 0.00760911
*CONN
*I *1156:C1 I *D sky130_fd_sc_hd__o211a_1
*I *1102:B I *D sky130_fd_sc_hd__xor2_1
*I *1094:A2 I *D sky130_fd_sc_hd__a21bo_1
*I *1093:X O *D sky130_fd_sc_hd__or3_2
*CAP
1 *1156:C1 5.65912e-05
2 *1102:B 7.80991e-05
3 *1094:A2 0.00012693
4 *1093:X 0.00124501
5 *187:14 0.0012431
6 *187:10 0.00120496
7 *187:6 0.00135531
8 *1094:A2 *270:28 1.41077e-05
9 *1156:C1 *354:25 0.000152796
10 *187:6 *1052:A1 4.34876e-05
11 *187:6 *1052:B2 2.93335e-05
12 *187:6 *305:16 7.94511e-05
13 *187:10 *351:10 7.55491e-05
14 *187:10 *354:59 0
15 *187:14 *1218:B 8.22421e-06
16 *187:14 *250:91 0
17 *187:14 *266:10 0.000104869
18 *187:14 *266:12 6.16531e-05
19 *187:14 *270:24 9.77972e-05
20 *187:14 *305:24 0
21 *187:14 *310:20 0
22 *187:14 *351:10 6.6869e-05
23 *187:14 *354:10 0
24 *187:14 *354:21 0
25 *187:14 *354:59 0
26 *1052:B1 *187:6 7.15924e-06
27 *1102:A *1094:A2 0.000443673
28 *1102:A *1102:B 0.000140935
29 *1153:A2 *187:6 5.3304e-05
30 *1153:A3 *187:6 0.00021677
31 *75:10 *187:14 6.28488e-05
32 *106:10 *1094:A2 0.000355029
33 *155:104 *187:6 7.44161e-06
34 *156:10 *187:14 0
35 *159:71 *1156:C1 0.0002778
*RES
1 *1093:X *187:6 38.3907 
2 *187:6 *187:10 17.2579 
3 *187:10 *187:14 34.865 
4 *187:14 *1094:A2 28.3857 
5 *187:14 *1102:B 24.5743 
6 *187:10 *1156:C1 41.0036 
*END

*D_NET *188 0.00205582
*CONN
*I *1101:B1 I *D sky130_fd_sc_hd__o21ai_1
*I *1097:A I *D sky130_fd_sc_hd__xnor2_1
*I *1094:X O *D sky130_fd_sc_hd__a21bo_1
*CAP
1 *1101:B1 2.61426e-05
2 *1097:A 0
3 *1094:X 4.24857e-05
4 *188:16 0.000636041
5 *188:8 0.000704669
6 *1101:B1 *270:32 1.86973e-05
7 *188:16 *1097:B 3.85196e-05
8 *188:16 *189:8 0.000135557
9 *188:16 *190:10 3.76761e-05
10 *188:16 *270:32 0.000108046
11 *188:16 *282:10 0
12 *188:16 *305:24 0
13 *106:10 *188:8 5.50106e-05
14 *133:8 *188:16 2.79004e-05
15 *157:27 *1101:B1 2.71502e-05
16 *157:27 *188:16 0.000197923
*RES
1 *1094:X *188:8 38.6214 
2 *188:8 *188:16 28.485 
3 *188:16 *1097:A 23 
4 *188:8 *1101:B1 38.8493 
*END

*D_NET *189 0.000455418
*CONN
*I *1096:A I *D sky130_fd_sc_hd__and2_1
*I *1095:X O *D sky130_fd_sc_hd__or2_1
*CAP
1 *1096:A 1.32523e-05
2 *1095:X 8.25282e-05
3 *189:8 9.57805e-05
4 *1096:A *249:89 5.56279e-05
5 *1096:B *189:8 2.91395e-05
6 *133:14 *1096:A 3.22467e-05
7 *157:27 *189:8 1.12863e-05
8 *188:16 *189:8 0.000135557
*RES
1 *1095:X *189:8 39.9057 
2 *189:8 *1096:A 38.6214 
*END

*D_NET *190 0.000769172
*CONN
*I *1097:B I *D sky130_fd_sc_hd__xnor2_1
*I *1096:X O *D sky130_fd_sc_hd__and2_1
*CAP
1 *1097:B 4.6596e-05
2 *1096:X 0.000204556
3 *190:10 0.000251152
4 *190:10 *274:8 0
5 *107:8 *1097:B 3.23857e-06
6 *133:14 *190:10 0.000187433
7 *188:16 *1097:B 3.85196e-05
8 *188:16 *190:10 3.76761e-05
*RES
1 *1096:X *190:10 41.2521 
2 *190:10 *1097:B 39.2014 
*END

*D_NET *191 0.0029163
*CONN
*I *1165:A1_N I *D sky130_fd_sc_hd__a2bb2o_1
*I *1100:B I *D sky130_fd_sc_hd__and3_2
*I *1098:Y O *D sky130_fd_sc_hd__inv_2
*CAP
1 *1165:A1_N 0
2 *1100:B 0
3 *1098:Y 6.60594e-05
4 *191:31 0.000332903
5 *191:14 0.000244088
6 *191:6 0.000643051
7 *191:6 *1093:B 0.00027007
8 *191:6 *357:77 0.000102389
9 *191:6 *357:88 0.000167318
10 *191:14 *1100:C 0.00012806
11 *191:14 *1271:CLK 6.17437e-06
12 *191:14 *237:29 1.88972e-05
13 *191:31 *1093:B 4.17736e-05
14 *191:31 *1165:A2_N 5.56356e-05
15 *191:31 *237:10 6.38845e-05
16 *191:31 *237:29 0.000301419
17 *191:31 *354:33 0
18 *191:31 *357:88 0.000136743
19 *77:8 *191:31 0
20 *154:40 *191:14 0.000139432
21 *154:53 *191:14 0.000136746
22 *186:28 *191:14 6.16531e-05
*RES
1 *1098:Y *191:6 26.0036 
2 *191:6 *191:14 35.4686 
3 *191:14 *1100:B 23 
4 *191:6 *191:31 37.4157 
5 *191:31 *1165:A1_N 23 
*END

*D_NET *192 0.00959964
*CONN
*I *1179:A2 I *D sky130_fd_sc_hd__a21bo_1
*I *1140:B I *D sky130_fd_sc_hd__nand2_1
*I *1145:S I *D sky130_fd_sc_hd__mux2_1
*I *1170:A2 I *D sky130_fd_sc_hd__o21ai_1
*I *1160:B2 I *D sky130_fd_sc_hd__o32a_1
*I *1100:C I *D sky130_fd_sc_hd__and3_2
*I *1099:Y O *D sky130_fd_sc_hd__inv_2
*CAP
1 *1179:A2 0.000556287
2 *1140:B 0
3 *1145:S 0.000128178
4 *1170:A2 0
5 *1160:B2 3.66886e-05
6 *1100:C 0.000237579
7 *1099:Y 0
8 *192:60 0.000236601
9 *192:56 0.000607666
10 *192:48 0.00235012
11 *192:16 0.000853461
12 *192:6 0.00187379
13 *1100:C *1271:CLK 0.000174591
14 *1145:S *1145:A1 5.3304e-05
15 *1145:S *1170:A1 8.40645e-05
16 *1145:S *1170:B1 5.47983e-06
17 *1145:S *287:8 1.59071e-05
18 *1160:B2 *1160:A2 5.50049e-05
19 *1160:B2 *1160:A3 6.32866e-06
20 *1179:A2 *1179:B1_N 5.50106e-05
21 *1179:A2 *259:56 7.27085e-05
22 *192:16 *1271:CLK 7.65883e-06
23 *192:16 *201:12 0.000114083
24 *192:16 *203:18 1.01436e-05
25 *192:16 *230:23 8.4047e-05
26 *192:16 *237:29 1.88972e-05
27 *192:16 *247:10 2.96369e-05
28 *192:16 *247:64 3.04021e-05
29 *192:16 *359:16 2.60152e-05
30 *192:16 *359:26 0.000256461
31 *192:48 *1129:A 5.69371e-05
32 *192:48 *1195:B 2.93747e-05
33 *192:48 *203:18 0.000314608
34 *192:48 *267:23 0
35 *192:48 *359:16 4.334e-05
36 *192:56 *1170:B1 1.3523e-05
37 *192:56 *213:10 0
38 *192:56 *224:6 2.1819e-05
39 *192:56 *254:58 0
40 *192:56 *287:14 0
41 *192:60 *1140:A 1.8788e-05
42 *192:60 *1170:B1 5.44267e-05
43 *192:60 *287:8 1.83618e-05
44 *1100:A *1100:C 3.36312e-06
45 *56:10 *192:48 9.58714e-05
46 *101:14 *192:48 0.000139974
47 *133:75 *192:16 0.000398071
48 *154:53 *1100:C 0.000122095
49 *154:53 *192:16 1.14452e-05
50 *154:60 *1160:B2 1.14154e-05
51 *154:70 *1160:B2 2.93747e-05
52 *154:70 *192:16 0.000108681
53 *191:14 *1100:C 0.00012806
*RES
1 *1099:Y *192:6 38 
2 *192:6 *192:16 41.0614 
3 *192:16 *1100:C 43.0543 
4 *192:16 *1160:B2 39.1186 
5 *192:6 *192:48 38.0964 
6 *192:48 *192:56 37.105 
7 *192:56 *192:60 2.42357 
8 *192:60 *1170:A2 23 
9 *192:60 *1145:S 25.5479 
10 *192:56 *1140:B 23 
11 *192:48 *1179:A2 32.4664 
*END

*D_NET *193 0.0135061
*CONN
*I *1155:A2 I *D sky130_fd_sc_hd__a21o_1
*I *1152:A3 I *D sky130_fd_sc_hd__a31o_1
*I *1157:A2 I *D sky130_fd_sc_hd__a22o_1
*I *1101:A2 I *D sky130_fd_sc_hd__o21ai_1
*I *1100:X O *D sky130_fd_sc_hd__and3_2
*CAP
1 *1155:A2 1.44762e-05
2 *1152:A3 0
3 *1157:A2 0.000161432
4 *1101:A2 0
5 *1100:X 0.000661625
6 *193:62 0.000478783
7 *193:50 0.0011792
8 *193:33 0.00166154
9 *193:20 0.000983713
10 *193:14 0.0024595
11 *1155:A2 *1155:A1 3.01693e-05
12 *1155:A2 *268:6 1.29754e-05
13 *1157:A2 *1157:A1 2.02517e-05
14 *1157:A2 *1157:B1 5.50049e-05
15 *1157:A2 *310:12 3.56537e-05
16 *193:14 *355:8 5.25848e-05
17 *193:20 *1287:A 6.48049e-05
18 *193:20 *261:8 0.00165033
19 *193:33 *1293:A 0.000140259
20 *193:33 *261:8 8.62876e-05
21 *193:33 *261:42 0.000221992
22 *193:33 *359:87 0.000105895
23 *193:50 *262:14 0
24 *193:50 *268:10 0.000151898
25 *193:50 *268:14 0.000638448
26 *193:50 *310:10 5.01247e-05
27 *193:50 *310:12 6.7177e-06
28 *193:50 *354:59 0
29 *193:50 *354:78 0
30 *193:50 *361:10 5.26204e-05
31 *193:62 *1152:A2 5.50106e-05
32 *193:62 *1152:B1 5.50049e-05
33 *193:62 *1155:A1 3.7877e-05
34 *193:62 *232:8 2.4754e-05
35 *193:62 *262:14 0.000323831
36 *193:62 *268:6 8.08729e-06
37 *193:62 *268:56 7.89191e-05
38 *193:62 *328:8 5.50049e-05
39 *193:62 *361:25 3.0647e-05
40 *193:62 *361:40 0.000179682
41 *1045:C1 *1157:A2 0
42 *1266:RESET_B *193:14 2.33744e-05
43 *47:8 *193:50 2.84809e-05
44 *92:10 *1157:A2 0
45 *92:10 *193:50 0
46 *95:10 *193:62 0.000183733
47 *106:10 *193:20 7.53384e-06
48 *154:24 *193:14 0.000234403
49 *155:55 *193:20 0
50 *155:125 *193:33 1.22803e-05
51 *156:40 *193:20 2.26497e-05
52 *156:51 *193:20 0.000415143
53 *157:27 *193:20 0.000264306
54 *161:14 *193:20 0.000192031
55 *161:93 *193:20 1.62615e-05
56 *162:45 *193:20 0.0002808
57 *163:22 *193:20 0
58 *163:22 *193:33 0
*RES
1 *1100:X *193:14 49.6414 
2 *193:14 *193:20 41.825 
3 *193:20 *1101:A2 23 
4 *193:14 *193:33 44.5621 
5 *193:33 *1157:A2 41.3764 
6 *193:33 *193:50 29.2307 
7 *193:50 *193:62 41.0821 
8 *193:62 *1152:A3 23 
9 *193:50 *1155:A2 23.5438 
*END

*D_NET *194 0.000863599
*CONN
*I *1109:A1 I *D sky130_fd_sc_hd__mux2_1
*I *1104:B1_N I *D sky130_fd_sc_hd__a21bo_1
*I *1103:X O *D sky130_fd_sc_hd__or2b_1
*CAP
1 *1109:A1 0
2 *1104:B1_N 0
3 *1103:X 0.000170035
4 *194:14 0.00013075
5 *194:8 0.000300785
6 *194:8 *1112:A1 0
7 *194:8 *198:18 2.30292e-05
8 *194:14 *1103:B_N 0
9 *194:14 *195:8 0
10 *194:14 *198:18 0.000225275
11 *194:14 *340:8 1.37246e-05
*RES
1 *1103:X *194:8 25.5479 
2 *194:8 *194:14 33.3143 
3 *194:14 *1104:B1_N 23 
4 *194:8 *1109:A1 23 
*END

*D_NET *195 0.000672667
*CONN
*I *1105:A I *D sky130_fd_sc_hd__buf_1
*I *1104:X O *D sky130_fd_sc_hd__a21bo_1
*CAP
1 *1105:A 8.68415e-05
2 *1104:X 0.000217114
3 *195:8 0.000303956
4 *1105:A *294:31 0
5 *195:8 *1103:B_N 6.47558e-05
6 *194:14 *195:8 0
*RES
1 *1104:X *195:8 42.0186 
2 *195:8 *1105:A 39.4707 
*END

*D_NET *196 0.000518447
*CONN
*I *1107:A I *D sky130_fd_sc_hd__clkbuf_2
*I *1106:X O *D sky130_fd_sc_hd__and4_1
*CAP
1 *1107:A 5.22497e-05
2 *1106:X 5.22497e-05
3 *1107:A *1106:B 2.4754e-05
4 *1107:A *197:6 0.000141052
5 *1107:A *255:66 2.18409e-05
6 *1107:A *256:24 0.0002263
*RES
1 *1106:X *1107:A 48.5271 
*END

*D_NET *197 0.0106782
*CONN
*I *1131:B I *D sky130_fd_sc_hd__nor2_1
*I *1121:A3 I *D sky130_fd_sc_hd__a31o_1
*I *1108:D I *D sky130_fd_sc_hd__and4_1
*I *1115:A3 I *D sky130_fd_sc_hd__a31oi_1
*I *1120:A2 I *D sky130_fd_sc_hd__a21oi_1
*I *1126:A2 I *D sky130_fd_sc_hd__a21oi_1
*I *1125:B I *D sky130_fd_sc_hd__or2_1
*I *1107:X O *D sky130_fd_sc_hd__clkbuf_2
*CAP
1 *1131:B 0
2 *1121:A3 2.0995e-05
3 *1108:D 0
4 *1115:A3 0
5 *1120:A2 0
6 *1126:A2 7.64967e-05
7 *1125:B 0
8 *1107:X 0
9 *197:86 0.000183857
10 *197:61 9.25415e-05
11 *197:55 0.00057782
12 *197:53 0.000531709
13 *197:44 0.000602324
14 *197:38 0.00108746
15 *197:18 0.000542434
16 *197:6 0.000971823
17 *197:4 0.000230042
18 *1121:A3 *1122:A2_N 0
19 *1121:A3 *257:18 1.14154e-05
20 *1126:A2 *1126:A1 0.000162206
21 *1126:A2 *1140:A 6.29487e-05
22 *197:6 *1106:B 0.000181125
23 *197:6 *256:24 1.56762e-05
24 *197:18 *1106:A 2.93747e-05
25 *197:18 *1106:B 0.000136738
26 *197:18 *1126:A1 3.3958e-05
27 *197:18 *201:53 2.76611e-06
28 *197:18 *201:66 1.34354e-05
29 *197:18 *254:58 0
30 *197:18 *256:24 9.62764e-05
31 *197:18 *257:88 0.00011673
32 *197:18 *257:90 0.000365652
33 *197:38 *1106:D 3.70094e-05
34 *197:38 *1171:A1 0.000109316
35 *197:38 *203:32 0
36 *197:38 *203:79 0
37 *197:38 *257:14 9.63815e-05
38 *197:38 *257:88 0.000274857
39 *197:38 *267:12 0
40 *197:38 *293:44 3.14377e-05
41 *197:44 *1121:A1 0
42 *197:44 *201:12 0.00027903
43 *197:44 *257:14 1.58805e-05
44 *197:44 *257:26 2.4754e-05
45 *197:44 *257:34 3.22879e-05
46 *197:44 *258:12 0.000441335
47 *197:44 *258:26 5.50106e-05
48 *197:44 *293:44 0
49 *197:53 *203:20 0.000141954
50 *197:53 *257:14 9.84794e-05
51 *197:53 *257:18 1.72202e-05
52 *197:55 *1108:A 9.78729e-06
53 *197:55 *1122:A1_N 4.34973e-05
54 *197:55 *1122:A2_N 6.34822e-05
55 *197:55 *1123:A1 0.000185428
56 *197:55 *1123:S 0.000141954
57 *197:55 *203:20 0.000173953
58 *197:55 *203:32 0.000143869
59 *197:55 *203:46 0.000140939
60 *197:55 *257:18 7.88926e-05
61 *197:55 *257:36 5.50049e-05
62 *197:55 *258:26 2.9938e-05
63 *197:55 *258:28 0.00062401
64 *197:61 *203:46 1.69668e-05
65 *197:61 *258:38 5.21127e-05
66 *197:61 *287:14 0.000162422
67 *197:86 *1106:D 0
68 *197:86 *217:10 5.47927e-05
69 *197:86 *246:75 1.12487e-05
70 *197:86 *255:57 0.000139647
71 *197:86 *293:38 0.000100733
72 *197:86 *293:44 0.000108681
73 *1107:A *197:6 0.000141052
74 *1126:B1 *1126:A2 2.16583e-05
75 *1126:B1 *197:18 0.000224402
76 *101:14 *197:38 5.74417e-05
77 *131:76 *197:44 8.80821e-05
78 *186:130 *197:55 7.44161e-06
*RES
1 *1107:X *197:4 23 
2 *197:4 *197:6 2.05071 
3 *197:6 *197:18 41.165 
4 *197:18 *1125:B 23 
5 *197:18 *1126:A2 26.045 
6 *197:6 *197:38 26.4136 
7 *197:38 *197:44 27.3871 
8 *197:44 *1120:A2 23 
9 *197:38 *197:53 16.5743 
10 *197:53 *197:55 14.9143 
11 *197:55 *197:61 32.2579 
12 *197:61 *1115:A3 23 
13 *197:55 *1108:D 23 
14 *197:53 *1121:A3 23.4971 
15 *197:4 *197:86 34.785 
16 *197:86 *1131:B 23 
*END

*D_NET *198 0.00322276
*CONN
*I *1117:A2 I *D sky130_fd_sc_hd__o31ai_1
*I *1109:S I *D sky130_fd_sc_hd__mux2_1
*I *1108:X O *D sky130_fd_sc_hd__and4_1
*CAP
1 *1117:A2 6.23533e-05
2 *1109:S 0
3 *1108:X 7.99111e-05
4 *198:18 0.000849385
5 *198:8 0.00099165
6 *1117:A2 *1117:A3 4.46649e-05
7 *1117:A2 *203:56 7.84431e-05
8 *1117:A2 *287:14 2.18409e-05
9 *198:8 *204:8 8.62876e-05
10 *198:8 *259:29 0
11 *198:8 *287:14 0.000168754
12 *198:18 *1104:A1 0.000175449
13 *198:18 *243:10 0
14 *198:18 *257:34 9.20311e-06
15 *198:18 *259:25 0.000275256
16 *198:18 *259:29 0
17 *198:18 *287:14 3.70187e-05
18 *198:18 *340:8 1.01436e-05
19 *58:10 *198:18 8.41012e-05
20 *194:8 *198:18 2.30292e-05
21 *194:14 *198:18 0.000225275
*RES
1 *1108:X *198:8 40.2579 
2 *198:8 *198:18 33.7879 
3 *198:18 *1109:S 23 
4 *198:8 *1117:A2 39.8332 
*END

*D_NET *199 0.000567429
*CONN
*I *1112:A1 I *D sky130_fd_sc_hd__mux2_1
*I *1109:X O *D sky130_fd_sc_hd__mux2_1
*CAP
1 *1112:A1 0.000169714
2 *1109:X 0.000169714
3 *1112:A1 *1112:A0 0.000228001
4 *194:8 *1112:A1 0
*RES
1 *1109:X *1112:A1 49.5007 
*END

*D_NET *200 0.000669107
*CONN
*I *1111:A2 I *D sky130_fd_sc_hd__o21a_4
*I *1110:X O *D sky130_fd_sc_hd__o311a_1
*CAP
1 *1111:A2 0
2 *1110:X 0.00019567
3 *200:10 0.00019567
4 *200:10 *1163:B 9.84851e-05
5 *200:10 *237:10 3.81658e-05
6 *1163:C *200:10 2.32004e-05
7 *154:40 *200:10 9.70839e-05
8 *186:28 *200:10 2.08324e-05
*RES
1 *1110:X *200:10 41.8321 
2 *200:10 *1111:A2 38 
*END

*D_NET *201 0.0176378
*CONN
*I *1138:S I *D sky130_fd_sc_hd__mux2_1
*I *1133:S I *D sky130_fd_sc_hd__mux2_1
*I *1142:S I *D sky130_fd_sc_hd__mux2_1
*I *1146:S I *D sky130_fd_sc_hd__mux2_1
*I *1128:S I *D sky130_fd_sc_hd__mux2_1
*I *1123:S I *D sky130_fd_sc_hd__mux2_1
*I *1118:S I *D sky130_fd_sc_hd__mux2_1
*I *1112:S I *D sky130_fd_sc_hd__mux2_1
*I *1111:X O *D sky130_fd_sc_hd__o21a_4
*CAP
1 *1138:S 0
2 *1133:S 0
3 *1142:S 0
4 *1146:S 0.000445146
5 *1128:S 0
6 *1123:S 5.12283e-05
7 *1118:S 0
8 *1112:S 0
9 *1111:X 0
10 *201:119 0.000131973
11 *201:104 0.000685552
12 *201:88 0.00111314
13 *201:81 0.00084612
14 *201:66 0.00125831
15 *201:53 0.000707291
16 *201:40 0.00060135
17 *201:28 0.000810314
18 *201:20 0.00163931
19 *201:14 0.000934487
20 *201:12 0.00110136
21 *201:6 0.00110136
22 *1123:S *1122:A1_N 0.000109895
23 *1123:S *1122:A2_N 0
24 *1123:S *258:26 2.77855e-05
25 *1146:S *1146:A0 0.000148688
26 *1146:S *254:58 5.41385e-05
27 *1146:S *293:38 0.000207928
28 *201:12 *247:10 0.000184527
29 *201:12 *293:44 0
30 *201:12 *357:77 2.95125e-05
31 *201:12 *359:26 0.000235709
32 *201:12 *359:30 1.02387e-05
33 *201:12 *359:40 0.000332366
34 *201:12 *360:51 0
35 *201:20 *1124:A 0.00010018
36 *201:20 *211:8 0
37 *201:20 *258:26 2.8936e-05
38 *201:20 *259:25 6.17437e-06
39 *201:28 *1118:A1 1.76557e-05
40 *201:28 *207:8 5.51058e-05
41 *201:28 *243:10 0
42 *201:28 *259:25 5.41288e-05
43 *201:28 *265:79 0.000324456
44 *201:28 *265:92 0.000129402
45 *201:40 *208:8 4.334e-05
46 *201:40 *258:26 6.02277e-06
47 *201:53 *212:8 5.15848e-05
48 *201:66 *254:58 0.000120857
49 *201:81 *1142:A0 5.3304e-05
50 *201:81 *1191:B 0.000459648
51 *201:81 *225:10 8.62876e-05
52 *201:81 *267:85 0
53 *201:88 *1142:A0 0.00025304
54 *201:104 *1133:A0 2.57604e-05
55 *201:104 *1244:CLK 0
56 *201:104 *203:123 1.59094e-05
57 *201:104 *219:10 0
58 *201:104 *247:107 0.000141879
59 *201:119 *222:8 7.20456e-05
60 *201:119 *246:109 5.50106e-05
61 *201:119 *255:16 5.50106e-05
62 *201:119 *255:28 0.000163178
63 *45:8 *201:12 0
64 *102:10 *201:20 2.93747e-05
65 *103:8 *201:28 0.000116314
66 *131:76 *201:12 0.000395895
67 *131:84 *201:12 9.48381e-06
68 *131:91 *201:12 0.000140259
69 *186:40 *201:20 0.000131169
70 *186:40 *201:40 4.95545e-05
71 *186:44 *201:40 8.94394e-05
72 *186:44 *201:53 0.00064159
73 *186:57 *201:53 0.000181952
74 *186:57 *201:66 1.14452e-05
75 *186:76 *201:66 0.000203416
76 *186:80 *201:66 0
77 *192:16 *201:12 0.000114083
78 *197:18 *201:53 2.76611e-06
79 *197:18 *201:66 1.34354e-05
80 *197:44 *201:12 0.00027903
81 *197:55 *1123:S 0.000141954
*RES
1 *1111:X *201:6 38 
2 *201:6 *201:12 40.81 
3 *201:12 *201:14 15 
4 *201:14 *201:20 30.7221 
5 *201:20 *201:28 48.3114 
6 *201:28 *1112:S 23 
7 *201:20 *1118:S 23 
8 *201:14 *201:40 2.61 
9 *201:40 *1123:S 40.0714 
10 *201:40 *201:53 11.0614 
11 *201:53 *1128:S 38 
12 *201:53 *201:66 20.8414 
13 *201:66 *1146:S 33.15 
14 *201:66 *201:81 42.035 
15 *201:81 *1142:S 23 
16 *201:81 *201:88 5.38571 
17 *201:88 *201:104 42.1386 
18 *201:104 *1133:S 23 
19 *201:88 *201:119 33.3764 
20 *201:119 *1138:S 23 
*END

*D_NET *202 0.000541002
*CONN
*I *1113:A I *D sky130_fd_sc_hd__clkbuf_1
*I *1112:X O *D sky130_fd_sc_hd__mux2_1
*CAP
1 *1113:A 0.000106412
2 *1112:X 7.18923e-05
3 *202:8 0.000178305
4 *1113:A *294:14 0.000141052
5 *1113:A *294:31 0
6 *202:8 *243:10 4.334e-05
7 *202:8 *340:8 0
*RES
1 *1112:X *202:8 39.2014 
2 *202:8 *1113:A 40.4236 
*END

*D_NET *203 0.0151719
*CONN
*I *1175:S I *D sky130_fd_sc_hd__mux2_1
*I *1137:B2 I *D sky130_fd_sc_hd__a2bb2o_1
*I *1168:S I *D sky130_fd_sc_hd__mux2_1
*I *1173:S I *D sky130_fd_sc_hd__mux2_1
*I *1171:S I *D sky130_fd_sc_hd__mux2_1
*I *1164:A1 I *D sky130_fd_sc_hd__a22o_1
*I *1122:B2 I *D sky130_fd_sc_hd__a2bb2o_1
*I *1116:B I *D sky130_fd_sc_hd__nand2_1
*I *1177:S I *D sky130_fd_sc_hd__mux2_1
*I *1117:A1 I *D sky130_fd_sc_hd__o31ai_1
*I *1114:X O *D sky130_fd_sc_hd__clkbuf_4
*CAP
1 *1175:S 0
2 *1137:B2 0
3 *1168:S 0.000705767
4 *1173:S 5.98189e-05
5 *1171:S 2.84143e-05
6 *1164:A1 0.000185815
7 *1122:B2 0
8 *1116:B 0
9 *1177:S 4.13694e-05
10 *1117:A1 0
11 *1114:X 4.06505e-05
12 *203:143 0.000115009
13 *203:123 0.0018245
14 *203:79 6.85925e-05
15 *203:56 0.000163309
16 *203:46 0.000727441
17 *203:32 0.00131976
18 *203:20 0.00145704
19 *203:18 0.00105361
20 *203:14 0.000404745
21 *203:12 0.000360727
22 *203:10 0.00150287
23 *203:6 0.000338873
24 *1164:A1 *237:29 5.79559e-05
25 *1164:A1 *247:22 0.000108899
26 *1168:S *1141:A 0.000100069
27 *1168:S *1168:A0 0.000272377
28 *1168:S *224:25 5.40241e-05
29 *1168:S *225:10 0.000359332
30 *1171:S *1171:A1 9.67842e-05
31 *1171:S *352:10 9.67842e-05
32 *1173:S *256:24 5.12254e-05
33 *1177:S *1108:A 5.50106e-05
34 *1177:S *1177:A1 5.50106e-05
35 *203:12 *247:75 0.000188049
36 *203:12 *255:74 4.18957e-05
37 *203:12 *256:16 0
38 *203:14 *247:75 8.67978e-05
39 *203:14 *255:74 9.03979e-05
40 *203:18 *247:64 0.000101564
41 *203:18 *247:75 0.000111158
42 *203:18 *255:74 4.08537e-05
43 *203:18 *267:23 0
44 *203:18 *352:10 0
45 *203:20 *246:8 5.50049e-05
46 *203:20 *257:14 4.5051e-05
47 *203:46 *1177:A1 0.00010253
48 *203:46 *257:36 4.21378e-05
49 *203:46 *258:38 8.50457e-05
50 *203:46 *258:59 1.32314e-05
51 *203:56 *1117:A3 2.29356e-05
52 *203:56 *1117:B1 0.00014411
53 *203:56 *259:29 0.000116314
54 *203:56 *259:46 2.55642e-05
55 *203:56 *287:14 0.000184527
56 *203:79 *257:26 1.12863e-05
57 *203:123 *1133:A0 6.17437e-06
58 *203:123 *1135:A1 1.21972e-05
59 *203:123 *1135:A2 2.93845e-05
60 *203:123 *1137:A1_N 7.88416e-05
61 *203:123 *218:10 8.4047e-05
62 *203:123 *247:75 0.000131077
63 *203:123 *247:107 3.72639e-05
64 *203:123 *256:10 0
65 *203:143 *256:16 0.000135114
66 *1099:A *1164:A1 7.53384e-06
67 *1099:A *203:20 9.63509e-05
68 *1114:A *203:6 1.1669e-05
69 *1114:A *203:10 5.4862e-05
70 *1117:A2 *203:56 7.84431e-05
71 *56:10 *203:18 0.000166513
72 *131:84 *203:20 2.64616e-05
73 *186:44 *203:32 4.334e-05
74 *186:44 *203:79 0
75 *192:16 *203:18 1.01436e-05
76 *192:48 *203:18 0.000314608
77 *197:38 *203:32 0
78 *197:38 *203:79 0
79 *197:53 *203:20 0.000141954
80 *197:55 *203:20 0.000173953
81 *197:55 *203:32 0.000143869
82 *197:55 *203:46 0.000140939
83 *197:61 *203:46 1.69668e-05
84 *201:104 *203:123 1.59094e-05
*RES
1 *1114:X *203:6 23.6214 
2 *203:6 *203:10 17.5271 
3 *203:10 *203:12 5.075 
4 *203:12 *203:14 2.61 
5 *203:14 *203:18 22.8921 
6 *203:18 *203:20 8.72071 
7 *203:20 *203:32 43.775 
8 *203:32 *203:46 38.3064 
9 *203:46 *203:56 35.1579 
10 *203:56 *1117:A1 23 
11 *203:46 *1177:S 24.0979 
12 *203:32 *1116:B 23 
13 *203:20 *203:79 31.2014 
14 *203:79 *1122:B2 23 
15 *203:18 *1164:A1 27.1429 
16 *203:14 *1171:S 39.0979 
17 *203:12 *1173:S 39.0979 
18 *203:10 *203:123 32.4829 
19 *203:123 *1168:S 37.8107 
20 *203:123 *1137:B2 23 
21 *203:6 *203:143 34.0186 
22 *203:143 *1175:S 23 
*END

*D_NET *204 0.000959813
*CONN
*I *1117:A3 I *D sky130_fd_sc_hd__o31ai_1
*I *1115:Y O *D sky130_fd_sc_hd__a31oi_1
*CAP
1 *1117:A3 0.000107042
2 *1115:Y 0.000166998
3 *204:8 0.00027404
4 *204:8 *257:51 0.000138727
5 *204:8 *259:29 3.31683e-05
6 *204:8 *259:46 5.22857e-05
7 *204:8 *287:14 3.36638e-05
8 *1117:A2 *1117:A3 4.46649e-05
9 *198:8 *204:8 8.62876e-05
10 *203:56 *1117:A3 2.29356e-05
*RES
1 *1115:Y *204:8 42.0186 
2 *204:8 *1117:A3 39.5743 
*END

*D_NET *205 0.0023787
*CONN
*I *1179:B1_N I *D sky130_fd_sc_hd__a21bo_1
*I *1117:B1 I *D sky130_fd_sc_hd__o31ai_1
*I *1116:Y O *D sky130_fd_sc_hd__nand2_1
*CAP
1 *1179:B1_N 0.000207842
2 *1117:B1 0.000247964
3 *1116:Y 0.000190276
4 *205:12 0.000646082
5 *1117:B1 *243:10 0.000169665
6 *1117:B1 *258:59 0.000127981
7 *1117:B1 *259:29 4.42688e-05
8 *1117:B1 *259:46 7.80251e-05
9 *1117:B1 *287:14 0
10 *1179:B1_N *258:59 0
11 *1179:B1_N *259:56 0.000221533
12 *1179:B1_N *287:14 0
13 *205:12 *257:51 5.3304e-05
14 *205:12 *258:38 5.20427e-05
15 *205:12 *258:49 3.60803e-05
16 *205:12 *258:59 4.95081e-05
17 *205:12 *259:46 5.50106e-05
18 *1179:A2 *1179:B1_N 5.50106e-05
19 *203:56 *1117:B1 0.00014411
*RES
1 *1116:Y *205:12 41.8218 
2 *205:12 *1117:B1 45.1775 
3 *205:12 *1179:B1_N 42.1118 
*END

*D_NET *206 0.000436931
*CONN
*I *1118:A1 I *D sky130_fd_sc_hd__mux2_1
*I *1117:Y O *D sky130_fd_sc_hd__o31ai_1
*CAP
1 *1118:A1 7.65612e-05
2 *1117:Y 4.07576e-05
3 *206:8 0.000117319
4 *1118:A1 *259:25 5.50106e-05
5 *206:8 *243:10 4.334e-05
6 *206:8 *259:29 8.62876e-05
7 *201:28 *1118:A1 1.76557e-05
*RES
1 *1117:Y *206:8 39.2014 
2 *206:8 *1118:A1 39.0979 
*END

*D_NET *207 0.000358153
*CONN
*I *1119:A I *D sky130_fd_sc_hd__clkbuf_1
*I *1118:X O *D sky130_fd_sc_hd__mux2_1
*CAP
1 *1119:A 0
2 *1118:X 6.71468e-05
3 *207:8 6.71468e-05
4 *207:8 *243:10 0.000168754
5 *201:28 *207:8 5.51058e-05
*RES
1 *1118:X *207:8 40.2579 
2 *207:8 *1119:A 38 
*END

*D_NET *208 0.000665138
*CONN
*I *1122:A1_N I *D sky130_fd_sc_hd__a2bb2o_1
*I *1120:Y O *D sky130_fd_sc_hd__a21oi_1
*CAP
1 *1122:A1_N 0.00012706
2 *1120:Y 3.73681e-05
3 *208:8 0.000164428
4 *1122:A1_N *1122:A2_N 0
5 *1122:A1_N *258:26 4.48566e-05
6 *208:8 *258:26 8.85189e-05
7 *1123:S *1122:A1_N 0.000109895
8 *186:130 *1122:A1_N 6.17437e-06
9 *197:55 *1122:A1_N 4.34973e-05
10 *201:40 *208:8 4.334e-05
*RES
1 *1120:Y *208:8 39.2014 
2 *208:8 *1122:A1_N 40.9 
*END

*D_NET *209 0.000537123
*CONN
*I *1122:A2_N I *D sky130_fd_sc_hd__a2bb2o_1
*I *1121:X O *D sky130_fd_sc_hd__a31o_1
*CAP
1 *1122:A2_N 9.38779e-05
2 *1121:X 9.38779e-05
3 *1122:A2_N *257:18 5.50106e-05
4 *1121:A3 *1122:A2_N 0
5 *1122:A1_N *1122:A2_N 0
6 *1123:S *1122:A2_N 0
7 *186:130 *1122:A2_N 0.000230874
8 *197:55 *1122:A2_N 6.34822e-05
*RES
1 *1121:X *1122:A2_N 49.3764 
*END

*D_NET *210 0.000431903
*CONN
*I *1123:A1 I *D sky130_fd_sc_hd__mux2_1
*I *1122:X O *D sky130_fd_sc_hd__a2bb2o_1
*CAP
1 *1123:A1 0.000123237
2 *1122:X 0.000123237
3 *197:55 *1123:A1 0.000185428
*RES
1 *1122:X *1123:A1 48.0507 
*END

*D_NET *211 0.00072576
*CONN
*I *1124:A I *D sky130_fd_sc_hd__clkbuf_1
*I *1123:X O *D sky130_fd_sc_hd__mux2_1
*CAP
1 *1124:A 7.7298e-05
2 *1123:X 0.000235492
3 *211:8 0.00031279
4 *211:8 *258:26 0
5 *201:20 *1124:A 0.00010018
6 *201:20 *211:8 0
*RES
1 *1123:X *211:8 42.0186 
2 *211:8 *1124:A 39.9471 
*END

*D_NET *212 0.000617888
*CONN
*I *1127:B1 I *D sky130_fd_sc_hd__a22o_1
*I *1125:X O *D sky130_fd_sc_hd__or2_1
*CAP
1 *1127:B1 9.71782e-05
2 *1125:X 0.000106234
3 *212:8 0.000203412
4 *1127:B1 *1127:B2 4.96101e-05
5 *1127:B1 *352:10 3.17516e-05
6 *212:8 *213:10 7.81176e-05
7 *201:53 *212:8 5.15848e-05
*RES
1 *1125:X *212:8 40.2579 
2 *212:8 *1127:B1 40.0714 
*END

*D_NET *213 0.00104156
*CONN
*I *1127:B2 I *D sky130_fd_sc_hd__a22o_1
*I *1126:Y O *D sky130_fd_sc_hd__a21oi_1
*CAP
1 *1127:B2 7.19991e-05
2 *1126:Y 0.000237398
3 *213:10 0.000309397
4 *1127:B2 *352:10 0.000139357
5 *1126:B1 *213:10 0.000141954
6 *1127:A2 *1127:B2 1.37232e-05
7 *1127:B1 *1127:B2 4.96101e-05
8 *192:56 *213:10 0
9 *212:8 *213:10 7.81176e-05
*RES
1 *1126:Y *213:10 41.8321 
2 *213:10 *1127:B2 40.5686 
*END

*D_NET *214 0.000612764
*CONN
*I *1128:A1 I *D sky130_fd_sc_hd__mux2_1
*I *1127:X O *D sky130_fd_sc_hd__a22o_1
*CAP
1 *1128:A1 0
2 *1127:X 0.000137935
3 *214:10 0.000137935
4 *214:10 *215:10 8.62876e-05
5 *214:10 *256:41 0
6 *214:10 *352:10 9.8203e-05
7 *186:57 *214:10 0.000140958
8 *186:76 *214:10 1.14452e-05
*RES
1 *1127:X *214:10 41.0036 
2 *214:10 *1128:A1 38 
*END

*D_NET *215 0.00125456
*CONN
*I *1129:A I *D sky130_fd_sc_hd__clkbuf_1
*I *1128:X O *D sky130_fd_sc_hd__mux2_1
*CAP
1 *1129:A 8.13594e-05
2 *1128:X 0.00034084
3 *215:10 0.000422199
4 *215:10 *257:88 0.000156609
5 *215:10 *257:90 3.7122e-06
6 *215:10 *267:12 0
7 *186:44 *215:10 8.06039e-05
8 *186:57 *215:10 2.60152e-05
9 *192:48 *1129:A 5.69371e-05
10 *214:10 *215:10 8.62876e-05
*RES
1 *1128:X *215:10 44.0693 
2 *215:10 *1129:A 39.9471 
*END

*D_NET *216 0.000385196
*CONN
*I *1132:B1 I *D sky130_fd_sc_hd__a22o_1
*I *1130:X O *D sky130_fd_sc_hd__a31o_1
*CAP
1 *1132:B1 0.000120017
2 *1130:X 0.000120017
3 *1132:B1 *246:85 0
4 *1132:B1 *255:51 0.000145163
*RES
1 *1130:X *1132:B1 48.0714 
*END

*D_NET *217 0.000883248
*CONN
*I *1132:B2 I *D sky130_fd_sc_hd__a22o_1
*I *1131:Y O *D sky130_fd_sc_hd__nor2_1
*CAP
1 *1132:B2 0
2 *1131:Y 0.000304754
3 *217:10 0.000304754
4 *217:10 *1106:D 0.000113739
5 *217:10 *246:105 0
6 *217:10 *253:71 4.21594e-06
7 *217:10 *255:57 0.000100994
8 *197:86 *217:10 5.47927e-05
*RES
1 *1131:Y *217:10 44.2971 
2 *217:10 *1132:B2 38 
*END

*D_NET *218 0.000592405
*CONN
*I *1133:A1 I *D sky130_fd_sc_hd__mux2_1
*I *1132:X O *D sky130_fd_sc_hd__a22o_1
*CAP
1 *1133:A1 0
2 *1132:X 0.00015086
3 *218:10 0.00015086
4 *218:10 *1130:B1 6.79214e-05
5 *218:10 *247:107 0.000138718
6 *218:10 *267:56 0
7 *203:123 *218:10 8.4047e-05
*RES
1 *1132:X *218:10 41.0036 
2 *218:10 *1133:A1 38 
*END

*D_NET *219 0.000329664
*CONN
*I *1134:A I *D sky130_fd_sc_hd__clkbuf_1
*I *1133:X O *D sky130_fd_sc_hd__mux2_1
*CAP
1 *1134:A 0
2 *1133:X 0.000154458
3 *219:10 0.000154458
4 *219:10 *1133:A0 2.07484e-05
5 *201:104 *219:10 0
*RES
1 *1133:X *219:10 40.5271 
2 *219:10 *1134:A 38 
*END

*D_NET *220 0.00025827
*CONN
*I *1137:A1_N I *D sky130_fd_sc_hd__a2bb2o_1
*I *1135:Y O *D sky130_fd_sc_hd__a21oi_1
*CAP
1 *1137:A1_N 7.95884e-05
2 *1135:Y 7.95884e-05
3 *1137:A1_N *1135:A2 2.02517e-05
4 *203:123 *1137:A1_N 7.88416e-05
*RES
1 *1135:Y *1137:A1_N 48.0714 
*END

*D_NET *221 0.000792179
*CONN
*I *1137:A2_N I *D sky130_fd_sc_hd__a2bb2o_1
*I *1136:X O *D sky130_fd_sc_hd__a31o_1
*CAP
1 *1137:A2_N 0
2 *1136:X 0.000300466
3 *221:10 0.000300466
4 *221:10 *253:58 4.5051e-05
5 *221:10 *253:69 0.000146197
6 *221:10 *254:14 0
7 *221:10 *254:20 0
*RES
1 *1136:X *221:10 42.785 
2 *221:10 *1137:A2_N 38 
*END

*D_NET *222 0.000967095
*CONN
*I *1138:A1 I *D sky130_fd_sc_hd__mux2_1
*I *1137:X O *D sky130_fd_sc_hd__a2bb2o_1
*CAP
1 *1138:A1 5.22603e-05
2 *1137:X 0.000266313
3 *222:8 0.000318573
4 *1138:A1 *255:16 9.91024e-05
5 *222:8 *246:105 0
6 *222:8 *247:137 0
7 *222:8 *254:12 0
8 *222:8 *255:28 0.000158801
9 *201:119 *222:8 7.20456e-05
*RES
1 *1137:X *222:8 43.4271 
2 *222:8 *1138:A1 39.0979 
*END

*D_NET *223 0.000310114
*CONN
*I *1139:A I *D sky130_fd_sc_hd__clkbuf_1
*I *1138:X O *D sky130_fd_sc_hd__mux2_1
*CAP
1 *1139:A 0
2 *1138:X 4.65756e-05
3 *223:8 4.65756e-05
4 *223:8 *1192:A 7.28526e-05
5 *223:8 *254:12 0.00014411
*RES
1 *1138:X *223:8 39.9057 
2 *223:8 *1139:A 38 
*END

*D_NET *224 0.00185291
*CONN
*I *1141:B I *D sky130_fd_sc_hd__xnor2_1
*I *1170:B1 I *D sky130_fd_sc_hd__o21ai_1
*I *1140:Y O *D sky130_fd_sc_hd__nand2_1
*CAP
1 *1141:B 0
2 *1170:B1 6.69926e-05
3 *1140:Y 4.50734e-05
4 *224:25 0.000638411
5 *224:6 0.000750477
6 *1170:B1 *287:8 1.3523e-05
7 *224:25 *267:85 0.000189157
8 *1145:S *1170:B1 5.47983e-06
9 *1168:S *224:25 5.40241e-05
10 *192:56 *1170:B1 1.3523e-05
11 *192:56 *224:6 2.1819e-05
12 *192:60 *1170:B1 5.44267e-05
*RES
1 *1140:Y *224:6 23.6214 
2 *224:6 *1170:B1 24.9679 
3 *224:6 *224:25 41.455 
4 *224:25 *1141:B 23 
*END

*D_NET *225 0.0010328
*CONN
*I *1142:A1 I *D sky130_fd_sc_hd__mux2_1
*I *1141:Y O *D sky130_fd_sc_hd__xnor2_1
*CAP
1 *1142:A1 0
2 *1141:Y 0.000293592
3 *225:10 0.000293592
4 *225:10 *267:85 0
5 *1168:S *225:10 0.000359332
6 *201:81 *225:10 8.62876e-05
*RES
1 *1141:Y *225:10 43.1579 
2 *225:10 *1142:A1 38 
*END

*D_NET *226 0.000678522
*CONN
*I *1143:A I *D sky130_fd_sc_hd__clkbuf_1
*I *1142:X O *D sky130_fd_sc_hd__mux2_1
*CAP
1 *1143:A 0
2 *1142:X 0.000339261
3 *226:10 0.000339261
4 *226:10 *1191:B 0
5 *226:10 *1192:B 0
6 *226:10 *1242:CLK 0
7 *226:10 *267:85 0
*RES
1 *1142:X *226:10 43.8207 
2 *226:10 *1143:A 38 
*END

*D_NET *227 0.00101313
*CONN
*I *1170:A1 I *D sky130_fd_sc_hd__o21ai_1
*I *1145:A1 I *D sky130_fd_sc_hd__mux2_1
*I *1144:Y O *D sky130_fd_sc_hd__inv_2
*CAP
1 *1170:A1 3.73014e-05
2 *1145:A1 5.8168e-05
3 *1144:Y 0.000112578
4 *227:12 9.54693e-05
5 *227:10 0.000112578
6 *1145:A1 *287:8 2.64616e-05
7 *1170:A1 *287:8 4.96303e-05
8 *227:10 *1144:A 0.000164282
9 *227:10 *287:14 0.000164282
10 *227:10 *352:10 5.50106e-05
11 *1145:S *1145:A1 5.3304e-05
12 *1145:S *1170:A1 8.40645e-05
*RES
1 *1144:Y *227:10 40.8793 
2 *227:10 *227:12 15 
3 *227:12 *1145:A1 24.0979 
4 *227:12 *1170:A1 24.0979 
*END

*D_NET *228 0.000149118
*CONN
*I *1146:A1 I *D sky130_fd_sc_hd__mux2_1
*I *1145:X O *D sky130_fd_sc_hd__mux2_1
*CAP
1 *1146:A1 0
2 *1145:X 6.0609e-05
3 *228:8 6.0609e-05
4 *228:8 *1145:A0 0
5 *228:8 *292:14 2.79004e-05
*RES
1 *1145:X *228:8 39.2014 
2 *228:8 *1146:A1 38 
*END

*D_NET *229 0.00029039
*CONN
*I *1147:A I *D sky130_fd_sc_hd__clkbuf_1
*I *1146:X O *D sky130_fd_sc_hd__mux2_1
*CAP
1 *1147:A 0
2 *1146:X 0.000103144
3 *229:8 0.000103144
4 *229:8 *292:14 8.41012e-05
*RES
1 *1146:X *229:8 40.2579 
2 *229:8 *1147:A 38 
*END

*D_NET *230 0.00545108
*CONN
*I *1149:S I *D sky130_fd_sc_hd__mux2_1
*I *1160:A3 I *D sky130_fd_sc_hd__o32a_1
*I *1148:Y O *D sky130_fd_sc_hd__nand2_1
*CAP
1 *1149:S 0
2 *1160:A3 0.000206461
3 *1148:Y 4.5004e-05
4 *230:23 0.00155168
5 *230:21 0.00155168
6 *230:6 0.000251465
7 *1160:A3 *1160:A1 1.20374e-05
8 *1160:A3 *1160:A2 3.75301e-05
9 *230:23 *1240:CLK 2.76611e-06
10 *230:23 *237:29 0.000395503
11 *230:23 *257:119 0.000602123
12 *230:23 *261:65 1.09886e-05
13 *230:23 *267:23 6.15592e-05
14 *230:23 *267:56 9.8993e-05
15 *230:23 *267:69 0.00017344
16 *230:23 *308:12 1.86973e-05
17 *230:23 *311:12 0
18 *230:23 *333:8 0
19 *1160:B2 *1160:A3 6.32866e-06
20 *55:8 *230:23 0
21 *100:10 *230:23 5.561e-05
22 *154:70 *1160:A3 9.5877e-05
23 *154:70 *230:23 0.000134279
24 *154:77 *1160:A3 1.32314e-05
25 *154:77 *230:6 4.17736e-05
26 *154:96 *230:23 0
27 *192:16 *230:23 8.4047e-05
*RES
1 *1148:Y *230:6 23.6214 
2 *230:6 *1160:A3 26.6871 
3 *230:6 *230:21 15 
4 *230:21 *230:23 36.0636 
5 *230:23 *1149:S 38 
*END

*D_NET *231 0.000536081
*CONN
*I *1150:A I *D sky130_fd_sc_hd__clkbuf_1
*I *1149:X O *D sky130_fd_sc_hd__mux2_1
*CAP
1 *1150:A 0
2 *1149:X 0.000227227
3 *231:10 0.000227227
4 *231:10 *1240:CLK 0
5 *231:10 *267:73 8.16277e-05
*RES
1 *1149:X *231:10 41.8321 
2 *231:10 *1150:A 38 
*END

*D_NET *232 0.00110125
*CONN
*I *1152:A1 I *D sky130_fd_sc_hd__a31o_1
*I *1151:Y O *D sky130_fd_sc_hd__inv_2
*CAP
1 *1152:A1 0
2 *1151:Y 0.000295636
3 *232:8 0.000295636
4 *232:8 *1152:B1 0.000485221
5 *193:62 *232:8 2.4754e-05
*RES
1 *1151:Y *232:8 29.3593 
2 *232:8 *1152:A1 23 
*END

*D_NET *233 0.000380753
*CONN
*I *1154:B1 I *D sky130_fd_sc_hd__a31o_1
*I *1153:X O *D sky130_fd_sc_hd__o31a_1
*CAP
1 *1154:B1 0
2 *1153:X 4.94278e-05
3 *233:8 4.94278e-05
4 *233:8 *305:16 0.000140949
5 *233:8 *351:10 0.000140949
*RES
1 *1153:X *233:8 39.9057 
2 *233:8 *1154:B1 38 
*END

*D_NET *234 0.00114814
*CONN
*I *1157:B1 I *D sky130_fd_sc_hd__a22o_1
*I *1156:X O *D sky130_fd_sc_hd__o211a_1
*CAP
1 *1157:B1 4.28061e-05
2 *1156:X 0.000233779
3 *234:10 0.000276585
4 *1157:B1 *1157:A1 2.93845e-05
5 *234:10 *1253:CLK 6.7177e-06
6 *234:10 *293:135 6.84987e-06
7 *234:10 *310:12 5.40866e-05
8 *234:10 *356:27 0.000138718
9 *1157:A2 *1157:B1 5.50049e-05
10 *154:14 *234:10 0
11 *154:20 *1157:B1 0.000140259
12 *183:8 *234:10 0.000111852
13 *184:8 *234:10 5.21024e-05
*RES
1 *1156:X *234:10 42.9921 
2 *234:10 *1157:B1 39.5743 
*END

*D_NET *235 0.000608943
*CONN
*I *1161:A I *D sky130_fd_sc_hd__inv_2
*I *1160:X O *D sky130_fd_sc_hd__o32a_1
*CAP
1 *1161:A 0
2 *1160:X 0.000295078
3 *235:8 0.000295078
4 *235:8 *1160:A1 1.8788e-05
*RES
1 *1160:X *235:8 27.93 
2 *235:8 *1161:A 23 
*END

*D_NET *236 0.00175575
*CONN
*I *1165:B1 I *D sky130_fd_sc_hd__a2bb2o_1
*I *1163:D I *D sky130_fd_sc_hd__or4_1
*I *1162:Y O *D sky130_fd_sc_hd__nand3_1
*CAP
1 *1165:B1 0.000140987
2 *1163:D 0.000103707
3 *1162:Y 0.000362817
4 *236:14 0.000244694
5 *236:12 0.000362817
6 *1163:D *1221:B 1.12487e-05
7 *1163:D *250:75 9.84794e-05
8 *1163:D *250:83 4.82774e-05
9 *1165:B1 *237:10 0
10 *1165:B1 *250:83 0.00012758
11 *236:12 *251:61 5.04375e-05
12 *236:12 *271:110 2.11066e-05
13 *77:8 *1165:B1 2.71024e-06
14 *156:40 *236:12 0.000148583
15 *156:51 *236:12 1.20442e-05
16 *163:22 *236:12 2.02588e-05
*RES
1 *1162:Y *236:12 47.502 
2 *236:12 *236:14 8 
3 *236:14 *1163:D 40.1232 
4 *236:14 *1165:B1 41.2004 
*END

*D_NET *237 0.00476212
*CONN
*I *1164:B1 I *D sky130_fd_sc_hd__a22o_1
*I *1165:A2_N I *D sky130_fd_sc_hd__a2bb2o_1
*I *1163:X O *D sky130_fd_sc_hd__or4_1
*CAP
1 *1164:B1 0
2 *1165:A2_N 0.000140631
3 *1163:X 0.000206041
4 *237:29 0.00076856
5 *237:10 0.00111523
6 *237:29 *1270:CLK 2.32101e-05
7 *237:29 *247:22 4.79111e-05
8 *237:29 *354:33 0
9 *237:29 *357:96 0.000428682
10 *1164:A1 *237:29 5.79559e-05
11 *1165:B1 *237:10 0
12 *1270:D *237:29 0.000139346
13 *42:10 *1165:A2_N 3.7122e-06
14 *154:40 *237:29 8.4047e-05
15 *154:53 *237:29 0.000299187
16 *154:70 *237:29 9.64943e-05
17 *154:96 *237:29 0
18 *186:28 *237:10 9.48318e-05
19 *186:28 *237:29 0.000363877
20 *191:14 *237:29 1.88972e-05
21 *191:31 *1165:A2_N 5.56356e-05
22 *191:31 *237:10 6.38845e-05
23 *191:31 *237:29 0.000301419
24 *192:16 *237:29 1.88972e-05
25 *200:10 *237:10 3.81658e-05
26 *230:23 *237:29 0.000395503
*RES
1 *1163:X *237:10 41.5836 
2 *237:10 *1165:A2_N 40.5686 
3 *237:10 *237:29 35.1757 
4 *237:29 *1164:B1 23 
*END

*D_NET *238 0.000743754
*CONN
*I *1167:A2 I *D sky130_fd_sc_hd__o21a_1
*I *1166:Y O *D sky130_fd_sc_hd__nor2_1
*CAP
1 *1167:A2 0.000170914
2 *1166:Y 0.000108876
3 *238:10 0.00027979
4 *1167:A2 *359:119 0.000124027
5 *238:10 *1152:A2 3.22465e-05
6 *238:10 *359:119 2.79004e-05
*RES
1 *1166:Y *238:10 39.8229 
2 *238:10 *1167:A2 40.5271 
*END

*D_NET *239 0.000229847
*CONN
*I *1169:A I *D sky130_fd_sc_hd__clkbuf_1
*I *1168:X O *D sky130_fd_sc_hd__mux2_1
*CAP
1 *1169:A 0
2 *1168:X 7.84972e-05
3 *239:8 7.84972e-05
4 *239:8 *292:14 7.28526e-05
*RES
1 *1168:X *239:8 39.9057 
2 *239:8 *1169:A 38 
*END

*D_NET *240 0.00831059
*CONN
*I *1172:A I *D sky130_fd_sc_hd__buf_1
*I *1171:X O *D sky130_fd_sc_hd__mux2_1
*CAP
1 *1172:A 0
2 *1171:X 0.00136173
3 *240:16 0.00192418
4 *240:8 0.00328591
5 *240:8 *1159:B1 0.000362421
6 *240:8 *1289:A 1.94693e-05
7 *240:8 *261:65 6.34418e-05
8 *240:8 *268:6 0.000121918
9 *240:16 *1278:CLK 3.16665e-05
10 *240:16 *241:36 0.000510799
11 *240:16 *268:6 3.42179e-05
12 *240:16 *268:56 0.000112087
13 *240:16 *280:10 9.84851e-05
14 *240:16 *328:8 6.58298e-05
15 *1159:A3 *240:8 3.56215e-05
16 *1278:RESET_B *240:16 4.67269e-05
17 *1308:A *240:16 9.50411e-05
18 *43:10 *240:8 0.000141052
*RES
1 *1171:X *240:8 47.2254 
2 *240:8 *240:16 28.0782 
3 *240:16 *1172:A 23 
*END

*D_NET *241 0.00748433
*CONN
*I *1174:A I *D sky130_fd_sc_hd__clkbuf_1
*I *1173:X O *D sky130_fd_sc_hd__mux2_1
*CAP
1 *1174:A 0
2 *1173:X 0.000532411
3 *241:36 0.000480654
4 *241:24 0.00235007
5 *241:12 0.00240183
6 *241:12 *1269:CLK 9.67842e-05
7 *241:12 *1269:D 0.000128964
8 *241:24 *252:12 5.67058e-05
9 *241:24 *262:35 5.6667e-05
10 *241:24 *342:10 4.82364e-05
11 *241:24 *358:8 0.000138287
12 *241:24 *358:25 7.01133e-05
13 *241:36 *244:10 0
14 *1021:S *241:24 4.70534e-05
15 *1278:RESET_B *241:36 9.97659e-05
16 *83:10 *241:24 0.000180218
17 *128:10 *241:36 0.000152394
18 *142:10 *241:36 0.000115019
19 *143:8 *241:36 1.83564e-05
20 *240:16 *241:36 0.000510799
*RES
1 *1173:X *241:12 33.5746 
2 *241:12 *241:24 47.5111 
3 *241:24 *241:36 28.1743 
4 *241:36 *1174:A 23 
*END

*D_NET *242 0.00807159
*CONN
*I *1176:A I *D sky130_fd_sc_hd__clkbuf_1
*I *1175:X O *D sky130_fd_sc_hd__mux2_1
*CAP
1 *1176:A 0
2 *1175:X 0
3 *242:14 0.000905101
4 *242:6 0.00283743
5 *242:4 0.00193233
6 *242:6 *246:85 3.53115e-05
7 *242:6 *247:79 0.00023032
8 *242:6 *262:35 3.71251e-05
9 *242:6 *264:12 0.000184527
10 *242:6 *277:18 4.59257e-05
11 *242:14 *1304:A 0.0002263
12 *242:14 *252:12 0
13 *242:14 *264:70 0.000226306
14 *242:14 *290:10 7.05498e-05
15 *242:14 *323:8 4.334e-05
16 *1015:B *242:6 0.00035673
17 *1053:A *242:6 0.000185428
18 *50:10 *242:6 9.01795e-05
19 *76:10 *242:6 5.67058e-05
20 *129:10 *242:6 5.50049e-05
21 *129:10 *242:14 0.000141879
22 *132:77 *242:6 3.97681e-05
23 *132:128 *242:6 0.000181131
24 *134:119 *242:14 0
25 *138:47 *242:14 8.16253e-05
26 *138:49 *242:14 0.000108569
*RES
1 *1175:X *242:4 23 
2 *242:4 *242:6 36.3536 
3 *242:6 *242:14 49.0364 
4 *242:14 *1176:A 23 
*END

*D_NET *243 0.00534625
*CONN
*I *1178:A I *D sky130_fd_sc_hd__clkbuf_1
*I *1177:X O *D sky130_fd_sc_hd__mux2_1
*CAP
1 *1178:A 7.35678e-05
2 *1177:X 8.97331e-05
3 *243:10 0.00205713
4 *243:8 0.0020733
5 *243:8 *258:59 8.91468e-07
6 *243:10 *1104:A1 0
7 *243:10 *259:25 0
8 *243:10 *259:29 2.29895e-05
9 *243:10 *265:79 0
10 *243:10 *294:14 0.000527017
11 *243:10 *340:8 0
12 oaddr[1] *243:10 0
13 *1117:B1 *243:10 0.000169665
14 *103:8 *243:10 3.81391e-05
15 *104:10 *243:10 3.83778e-05
16 *119:10 *243:10 0
17 *198:18 *243:10 0
18 *201:28 *243:10 0
19 *202:8 *243:10 4.334e-05
20 *206:8 *243:10 4.334e-05
21 *207:8 *243:10 0.000168754
*RES
1 *1177:X *243:8 39.0979 
2 *243:8 *243:10 43.4586 
3 *243:10 *1178:A 39.4707 
*END

*D_NET *244 0.00738517
*CONN
*I *1181:A I *D sky130_fd_sc_hd__clkbuf_1
*I *1180:X O *D sky130_fd_sc_hd__or2_1
*CAP
1 *1181:A 0
2 *1180:X 0.000897484
3 *244:10 0.00132771
4 *244:6 0.00222519
5 *244:10 *281:10 0.000168754
6 *244:10 *281:25 0.00063869
7 *48:10 *244:6 0.000359271
8 *90:8 *244:10 0
9 *128:10 *244:10 0
10 *130:8 *244:10 0.000141888
11 *132:20 *244:6 0.000348512
12 *132:42 *244:10 0.000215529
13 *132:59 *244:10 0.000202097
14 *132:93 *244:10 0.000142233
15 *134:60 *244:6 0.000272383
16 *134:67 *244:6 0.000255761
17 *134:76 *244:6 0.000189669
18 *136:95 *244:10 0
19 *142:10 *244:10 0
20 *143:8 *244:10 0
21 *241:36 *244:10 0
*RES
1 *1180:X *244:6 43.6314 
2 *244:6 *244:10 45.7814 
3 *244:10 *1181:A 38 
*END

*D_NET *245 0.000722148
*CONN
*I *1183:A I *D sky130_fd_sc_hd__clkbuf_1
*I *1182:X O *D sky130_fd_sc_hd__or2_1
*CAP
1 *1183:A 0
2 *1182:X 0.000283319
3 *245:12 0.000283319
4 *245:12 *355:48 0.000100415
5 *51:8 *245:12 5.50955e-05
6 *124:10 *245:12 0
*RES
1 *1182:X *245:12 43.7586 
2 *245:12 *1183:A 38 
*END

*D_NET *246 0.0210991
*CONN
*I *1193:A I *D sky130_fd_sc_hd__nor2_1
*I *1192:A I *D sky130_fd_sc_hd__nor2_1
*I *1191:A I *D sky130_fd_sc_hd__nor2_1
*I *1194:A I *D sky130_fd_sc_hd__nor2_1
*I *1190:A I *D sky130_fd_sc_hd__nor2_1
*I *1195:A I *D sky130_fd_sc_hd__nor2_1
*I *1189:A I *D sky130_fd_sc_hd__nor2_1
*I *1187:A I *D sky130_fd_sc_hd__nor2_1
*I *1186:A I *D sky130_fd_sc_hd__nor2_1
*I *1188:A I *D sky130_fd_sc_hd__nor2_1
*I *1184:X O *D sky130_fd_sc_hd__clkbuf_4
*CAP
1 *1193:A 4.01155e-05
2 *1192:A 0.000127447
3 *1191:A 0.000462492
4 *1194:A 0
5 *1190:A 0
6 *1195:A 0
7 *1189:A 0
8 *1187:A 0
9 *1186:A 1.96641e-05
10 *1188:A 2.13128e-05
11 *1184:X 1.80505e-05
12 *246:109 0.000860438
13 *246:105 0.000731699
14 *246:91 0.000311686
15 *246:85 0.00102554
16 *246:75 0.00156001
17 *246:66 0.000613263
18 *246:59 0.00074275
19 *246:48 0.00103932
20 *246:33 0.000625274
21 *246:24 0.000502169
22 *246:16 0.00197426
23 *246:8 0.00200868
24 *1186:A *1186:B 5.90675e-06
25 *1186:A *247:41 4.00259e-06
26 *1188:A *247:26 5.47983e-06
27 *1191:A *1191:B 0.000219027
28 *1191:A *1192:B 0
29 *1191:A *254:12 5.38787e-05
30 *1191:A *254:14 4.6318e-06
31 *1191:A *254:20 0
32 *1192:A *1192:B 0
33 *1192:A *254:12 3.84797e-05
34 *246:16 *247:22 0.00139325
35 *246:16 *247:64 7.75329e-06
36 *246:16 *293:44 4.68476e-05
37 *246:24 *247:22 0.000100069
38 *246:24 *247:26 4.93812e-05
39 *246:24 *305:48 0
40 *246:24 *359:87 0.000111852
41 *246:24 *359:119 1.01436e-05
42 *246:33 *247:26 0.000229544
43 *246:33 *247:41 5.70419e-05
44 *246:48 *247:41 0.000171082
45 *246:48 *247:52 6.07611e-06
46 *246:59 *247:52 0.000627739
47 *246:59 *277:18 0
48 *246:59 *327:8 4.58924e-05
49 *246:66 *247:64 0.000130705
50 *246:66 *293:44 0.000170351
51 *246:75 *247:64 4.21594e-06
52 *246:75 *247:75 0.000293632
53 *246:75 *255:57 0.000515229
54 *246:75 *293:44 0.000137148
55 *246:85 *1130:B1 2.61526e-05
56 *246:85 *247:79 0.000991971
57 *246:85 *255:51 0
58 *246:85 *257:119 5.3304e-05
59 *246:91 *247:91 0.000653051
60 *246:91 *264:87 0
61 *246:91 *355:48 0.000422512
62 *246:105 *1135:A1 0
63 *246:105 *1135:A2 0
64 *246:105 *247:107 0.000190083
65 *246:105 *247:137 1.58805e-05
66 *246:105 *253:71 0
67 *246:105 *255:28 0
68 *246:105 *255:57 2.77955e-05
69 *246:109 *247:107 9.67842e-05
70 *246:109 *247:111 0.000740401
71 *246:109 *255:16 0.000215233
72 *1099:A *246:8 2.93747e-05
73 *1099:A *246:16 6.82416e-05
74 *1132:B1 *246:85 0
75 *48:10 *246:59 0
76 *49:10 *246:24 1.01436e-05
77 *50:10 *246:59 0
78 *131:84 *246:16 3.20914e-05
79 *186:101 *246:75 8.4047e-05
80 *186:101 *246:85 2.64616e-05
81 *186:101 *246:105 6.25829e-05
82 *186:130 *246:16 0
83 *197:86 *246:75 1.12487e-05
84 *201:119 *246:109 5.50106e-05
85 *203:20 *246:8 5.50049e-05
86 *217:10 *246:105 0
87 *222:8 *246:105 0
88 *223:8 *1192:A 7.28526e-05
89 *242:6 *246:85 3.53115e-05
*RES
1 *1184:X *246:8 38.6214 
2 *246:8 *246:16 41.6179 
3 *246:16 *246:24 33.6043 
4 *246:24 *1188:A 23.4971 
5 *246:24 *246:33 5.86214 
6 *246:33 *1186:A 23.4971 
7 *246:33 *246:48 20.6343 
8 *246:48 *1187:A 38 
9 *246:48 *246:59 32.0479 
10 *246:59 *1189:A 23 
11 *246:8 *246:66 5.42714 
12 *246:66 *1195:A 38 
13 *246:66 *246:75 13.1743 
14 *246:75 *246:85 29.6243 
15 *246:85 *246:91 41.4136 
16 *246:91 *1190:A 23 
17 *246:85 *1194:A 23 
18 *246:75 *246:105 23.9486 
19 *246:105 *246:109 24.1971 
20 *246:109 *1191:A 47.4871 
21 *246:109 *1192:A 41.3143 
22 *246:105 *1193:A 23.8493 
*END

*D_NET *247 0.0219129
*CONN
*I *1193:B I *D sky130_fd_sc_hd__nor2_1
*I *1192:B I *D sky130_fd_sc_hd__nor2_1
*I *1191:B I *D sky130_fd_sc_hd__nor2_1
*I *1194:B I *D sky130_fd_sc_hd__nor2_1
*I *1190:B I *D sky130_fd_sc_hd__nor2_1
*I *1195:B I *D sky130_fd_sc_hd__nor2_1
*I *1188:B I *D sky130_fd_sc_hd__nor2_1
*I *1189:B I *D sky130_fd_sc_hd__nor2_1
*I *1187:B I *D sky130_fd_sc_hd__nor2_1
*I *1186:B I *D sky130_fd_sc_hd__nor2_1
*I *1185:X O *D sky130_fd_sc_hd__clkbuf_4
*CAP
1 *1193:B 0
2 *1192:B 0.000230376
3 *1191:B 0.000273461
4 *1194:B 0
5 *1190:B 0
6 *1195:B 3.2572e-05
7 *1188:B 0
8 *1189:B 0
9 *1187:B 0
10 *1186:B 2.14194e-05
11 *1185:X 0.000199855
12 *247:137 6.77274e-05
13 *247:111 0.00118397
14 *247:107 0.00129178
15 *247:91 0.000486704
16 *247:79 0.000759495
17 *247:75 0.00133357
18 *247:64 0.000783969
19 *247:52 0.000509342
20 *247:41 0.000718946
21 *247:26 0.000548257
22 *247:22 0.00116349
23 *247:10 0.00128066
24 *1191:B *267:85 0
25 *1192:B *267:79 9.84851e-05
26 *247:22 *1270:CLK 9.5877e-05
27 *247:22 *359:81 0.000167704
28 *247:41 *262:14 9.53705e-05
29 *247:52 *262:14 0.000168892
30 *247:52 *268:56 0.000664003
31 *247:52 *268:73 0.000169683
32 *247:52 *329:8 8.85189e-05
33 *247:79 *1130:B1 0.000231602
34 *247:91 *311:12 0
35 *247:107 *255:16 3.46673e-05
36 *247:107 *267:56 0
37 *247:107 *267:69 0
38 *1099:A *247:22 9.84851e-05
39 *1164:A1 *247:22 0.000108899
40 *1186:A *1186:B 5.90675e-06
41 *1186:A *247:41 4.00259e-06
42 *1188:A *247:26 5.47983e-06
43 *1191:A *1191:B 0.000219027
44 *1191:A *1192:B 0
45 *1192:A *1192:B 0
46 *1270:D *247:22 1.5769e-05
47 *49:10 *247:22 1.34995e-05
48 *49:10 *247:26 7.51453e-06
49 *55:8 *247:91 0.000168744
50 *56:10 *247:64 0.000166513
51 *131:84 *247:10 0.000110922
52 *131:84 *247:64 5.01986e-05
53 *133:90 *247:22 0.000358644
54 *133:101 *247:22 8.43466e-05
55 *154:70 *247:22 2.31591e-05
56 *186:101 *247:75 6.4393e-05
57 *192:16 *247:10 2.96369e-05
58 *192:16 *247:64 3.04021e-05
59 *192:48 *1195:B 2.93747e-05
60 *201:12 *247:10 0.000184527
61 *201:81 *1191:B 0.000459648
62 *201:104 *247:107 0.000141879
63 *203:12 *247:75 0.000188049
64 *203:14 *247:75 8.67978e-05
65 *203:18 *247:64 0.000101564
66 *203:18 *247:75 0.000111158
67 *203:123 *247:75 0.000131077
68 *203:123 *247:107 3.72639e-05
69 *218:10 *247:107 0.000138718
70 *222:8 *247:137 0
71 *226:10 *1191:B 0
72 *226:10 *1192:B 0
73 *237:29 *247:22 4.79111e-05
74 *242:6 *247:79 0.00023032
75 *246:16 *247:22 0.00139325
76 *246:16 *247:64 7.75329e-06
77 *246:24 *247:22 0.000100069
78 *246:24 *247:26 4.93812e-05
79 *246:33 *247:26 0.000229544
80 *246:33 *247:41 5.70419e-05
81 *246:48 *247:41 0.000171082
82 *246:48 *247:52 6.07611e-06
83 *246:59 *247:52 0.000627739
84 *246:66 *247:64 0.000130705
85 *246:75 *247:64 4.21594e-06
86 *246:75 *247:75 0.000293632
87 *246:85 *247:79 0.000991971
88 *246:91 *247:91 0.000653051
89 *246:105 *247:107 0.000190083
90 *246:105 *247:137 1.58805e-05
91 *246:109 *247:107 9.67842e-05
92 *246:109 *247:111 0.000740401
*RES
1 *1185:X *247:10 41.6043 
2 *247:10 *247:22 40.7271 
3 *247:22 *247:26 6.35929 
4 *247:26 *1186:B 23.4971 
5 *247:26 *247:41 20.6343 
6 *247:41 *1187:B 38 
7 *247:41 *247:52 32.0479 
8 *247:52 *1189:B 23 
9 *247:22 *1188:B 23 
10 *247:10 *247:64 6.48357 
11 *247:64 *1195:B 38.6214 
12 *247:64 *247:75 13.8786 
13 *247:75 *247:79 26.1029 
14 *247:79 *247:91 42.8014 
15 *247:91 *1190:B 23 
16 *247:79 *1194:B 23 
17 *247:75 *247:107 25.4193 
18 *247:107 *247:111 25.15 
19 *247:111 *1191:B 45.8921 
20 *247:111 *1192:B 42.7643 
21 *247:107 *247:137 31.2014 
22 *247:137 *1193:B 23 
*END

*D_NET *248 0.0196671
*CONN
*I *1198:A I *D sky130_fd_sc_hd__nor2_1
*I *1199:A I *D sky130_fd_sc_hd__nor2_1
*I *1200:A I *D sky130_fd_sc_hd__nor2_1
*I *1207:A I *D sky130_fd_sc_hd__nor2_1
*I *1201:A I *D sky130_fd_sc_hd__nor2_1
*I *1204:A I *D sky130_fd_sc_hd__nor2_1
*I *1205:A I *D sky130_fd_sc_hd__nor2_1
*I *1202:A I *D sky130_fd_sc_hd__nor2_1
*I *1203:A I *D sky130_fd_sc_hd__nor2_1
*I *1206:A I *D sky130_fd_sc_hd__nor2_1
*I *1196:X O *D sky130_fd_sc_hd__clkbuf_4
*CAP
1 *1198:A 0.000138518
2 *1199:A 7.84781e-05
3 *1200:A 0.000328953
4 *1207:A 0
5 *1201:A 0
6 *1204:A 6.51354e-05
7 *1205:A 0
8 *1202:A 0
9 *1203:A 0.000110193
10 *1206:A 2.1727e-05
11 *1196:X 0
12 *248:116 0.000452669
13 *248:79 0.000467394
14 *248:73 0.0011253
15 *248:65 0.00123228
16 *248:41 0.000203166
17 *248:35 0.00218296
18 *248:20 0.00268983
19 *248:12 0.00131439
20 *248:10 0.000592374
21 *248:6 0.000402331
22 *1198:A *1198:B 0.000236614
23 *1199:A *1199:B 0.000146971
24 *1199:A *360:18 9.41704e-05
25 *1200:A *265:71 0
26 *1200:A *265:73 7.24365e-05
27 *1200:A *265:112 5.42593e-05
28 *1203:A *1202:B 1.73222e-05
29 *1203:A *249:89 2.80394e-05
30 *1203:A *249:100 3.52912e-05
31 *1204:A *1204:B 5.56356e-05
32 *1206:A *249:29 4.00259e-06
33 *248:10 *249:59 0.000438174
34 *248:10 *250:18 0
35 *248:10 *265:112 0.000357939
36 *248:12 *249:29 0
37 *248:12 *249:59 4.85126e-05
38 *248:12 *250:18 0
39 *248:12 *265:71 0
40 *248:20 *1060:A0 9.84851e-05
41 *248:20 *1060:A1 2.32004e-05
42 *248:20 *1300:A 6.38845e-05
43 *248:20 *249:29 7.44161e-06
44 *248:20 *251:14 0.000310641
45 *248:20 *265:37 0
46 *248:20 *265:54 0
47 *248:20 *265:71 0
48 *248:20 *301:23 2.18409e-05
49 *248:20 *302:23 0.000102638
50 *248:20 *345:8 4.08641e-05
51 *248:35 *1206:B 5.73309e-05
52 *248:35 *249:14 0.000972465
53 *248:35 *249:29 1.22822e-05
54 *248:35 *249:89 0.00122442
55 *248:41 *249:89 2.93845e-05
56 *248:41 *310:20 1.86859e-05
57 *248:65 *310:20 0.000177914
58 *248:73 *1043:C 0.000167443
59 *248:73 *249:122 0
60 *248:73 *269:10 0.000429602
61 *248:73 *270:8 0
62 *248:73 *270:75 2.04774e-05
63 *248:73 *271:47 0
64 *248:79 *1205:B 0.000819404
65 *248:79 *249:122 3.70187e-05
66 *248:79 *270:75 0
67 *248:116 *1198:B 5.94125e-05
68 *248:116 *249:59 0.00042671
69 *248:116 *265:112 6.38845e-05
70 *60:10 *248:73 6.53445e-05
71 *66:8 *248:20 0.000169142
72 *111:10 *248:20 4.58924e-05
73 *131:10 *1199:A 0.000356718
74 *131:14 *248:116 0
75 *131:16 *248:116 0
76 *133:26 *1206:A 0
77 *133:26 *248:20 7.2e-05
78 *133:26 *248:35 3.22879e-05
79 *133:32 *248:20 0.000168985
80 *154:14 *248:79 0
81 *165:28 *248:20 0.000576233
82 *179:26 *248:20 0
83 *186:10 *1198:A 0
*RES
1 *1196:X *248:6 38 
2 *248:6 *248:10 6.40071 
3 *248:10 *248:12 1.90571 
4 *248:12 *248:20 42.8607 
5 *248:20 *1206:A 23.4971 
6 *248:20 *248:35 41.8664 
7 *248:35 *248:41 16.8229 
8 *248:41 *1203:A 25.5686 
9 *248:41 *1202:A 23 
10 *248:35 *248:65 26.6829 
11 *248:65 *248:73 43.4643 
12 *248:73 *248:79 41.4136 
13 *248:79 *1205:A 23 
14 *248:73 *1204:A 24.0979 
15 *248:65 *1201:A 23 
16 *248:12 *1207:A 38 
17 *248:10 *1200:A 42.8057 
18 *248:6 *248:116 6.48357 
19 *248:116 *1199:A 41.9564 
20 *248:116 *1198:A 41.3143 
*END

*D_NET *249 0.0203069
*CONN
*I *1205:B I *D sky130_fd_sc_hd__nor2_1
*I *1204:B I *D sky130_fd_sc_hd__nor2_1
*I *1201:B I *D sky130_fd_sc_hd__nor2_1
*I *1203:B I *D sky130_fd_sc_hd__nor2_1
*I *1202:B I *D sky130_fd_sc_hd__nor2_1
*I *1198:B I *D sky130_fd_sc_hd__nor2_1
*I *1199:B I *D sky130_fd_sc_hd__nor2_1
*I *1200:B I *D sky130_fd_sc_hd__nor2_1
*I *1207:B I *D sky130_fd_sc_hd__nor2_1
*I *1206:B I *D sky130_fd_sc_hd__nor2_1
*I *1197:X O *D sky130_fd_sc_hd__clkbuf_4
*CAP
1 *1205:B 0.000466788
2 *1204:B 0.000118474
3 *1201:B 9.79236e-05
4 *1203:B 0
5 *1202:B 1.46693e-05
6 *1198:B 0.00032119
7 *1199:B 0.000324105
8 *1200:B 0
9 *1207:B 0
10 *1206:B 5.14601e-06
11 *1197:X 0
12 *249:122 0.0011042
13 *249:111 0.00124604
14 *249:100 0.000698505
15 *249:89 0.000568303
16 *249:59 0.00107024
17 *249:50 0.000395545
18 *249:42 0.000976421
19 *249:33 0.000302265
20 *249:29 0.00161517
21 *249:14 0.001695
22 *249:4 0.000705328
23 *1198:B *360:18 2.46345e-05
24 *1199:B *360:18 5.3304e-05
25 *249:29 *1060:A1 6.17437e-06
26 *249:29 *1300:A 0
27 *249:29 *250:18 0.00085066
28 *249:29 *301:23 0.000189104
29 *249:29 *302:23 0
30 *249:29 *345:8 0
31 *249:59 *1103:A 0.000167443
32 *249:59 *265:71 6.68793e-05
33 *249:59 *360:18 0.000139647
34 *249:111 *270:8 0.000169674
35 *249:111 *271:10 0
36 *249:122 *270:8 0.000583089
37 *1096:A *249:89 5.56279e-05
38 *1198:A *1198:B 0.000236614
39 *1199:A *1199:B 0.000146971
40 *1203:A *1202:B 1.73222e-05
41 *1203:A *249:89 2.80394e-05
42 *1203:A *249:100 3.52912e-05
43 *1204:A *1204:B 5.56356e-05
44 *1206:A *249:29 4.00259e-06
45 *57:12 *1198:B 3.22879e-05
46 *60:10 *1201:B 2.30292e-05
47 *61:10 *249:89 1.24376e-05
48 *61:10 *249:100 6.9805e-05
49 *61:10 *249:111 1.5769e-05
50 *63:8 *1205:B 4.98364e-05
51 *66:8 *249:29 0
52 *131:10 *1199:B 3.24262e-05
53 *133:14 *249:14 5.83407e-05
54 *133:14 *249:89 0.000156386
55 *133:26 *249:14 0.000679256
56 *133:26 *249:29 0.000268868
57 *133:32 *249:29 0.000164354
58 *165:28 *249:29 0
59 *165:34 *249:29 0
60 *179:26 *249:29 5.61207e-05
61 *186:22 *1198:B 0
62 *248:10 *249:59 0.000438174
63 *248:12 *249:29 0
64 *248:12 *249:59 4.85126e-05
65 *248:20 *249:29 7.44161e-06
66 *248:35 *1206:B 5.73309e-05
67 *248:35 *249:14 0.000972465
68 *248:35 *249:29 1.22822e-05
69 *248:35 *249:89 0.00122442
70 *248:41 *249:89 2.93845e-05
71 *248:73 *249:122 0
72 *248:79 *1205:B 0.000819404
73 *248:79 *249:122 3.70187e-05
74 *248:116 *1198:B 5.94125e-05
75 *248:116 *249:59 0.00042671
*RES
1 *1197:X *249:4 23 
2 *249:4 *249:14 12.3871 
3 *249:14 *1206:B 23.6214 
4 *249:14 *249:29 42.7157 
5 *249:29 *249:33 17.5271 
6 *249:33 *1207:B 23 
7 *249:33 *249:42 2.54786 
8 *249:42 *249:50 36.2143 
9 *249:50 *1200:B 23 
10 *249:42 *249:59 27.8221 
11 *249:59 *1199:B 43.2821 
12 *249:59 *1198:B 44.5871 
13 *249:4 *249:89 15.4114 
14 *249:89 *1202:B 23.4971 
15 *249:89 *249:100 2.07143 
16 *249:100 *1203:B 23 
17 *249:100 *249:111 27.1179 
18 *249:111 *1201:B 39.5743 
19 *249:111 *249:122 11.7657 
20 *249:122 *1204:B 40.0714 
21 *249:122 *1205:B 49.6829 
*END

*D_NET *250 0.0268177
*CONN
*I *1221:A I *D sky130_fd_sc_hd__nor2_1
*I *1218:A I *D sky130_fd_sc_hd__nor2_1
*I *1213:A I *D sky130_fd_sc_hd__nor2_1
*I *1214:A I *D sky130_fd_sc_hd__nor2_1
*I *1211:A I *D sky130_fd_sc_hd__nor2_1
*I *1212:A I *D sky130_fd_sc_hd__nor2_1
*I *1215:A I *D sky130_fd_sc_hd__nor2_1
*I *1217:A I *D sky130_fd_sc_hd__nor2_1
*I *1210:A I *D sky130_fd_sc_hd__nor2_1
*I *1216:A I *D sky130_fd_sc_hd__nor2_1
*I *1208:X O *D sky130_fd_sc_hd__clkbuf_4
*CAP
1 *1221:A 0
2 *1218:A 0
3 *1213:A 9.39277e-05
4 *1214:A 0
5 *1211:A 2.09628e-05
6 *1212:A 3.80122e-05
7 *1215:A 0.000430904
8 *1217:A 0
9 *1210:A 0.000261872
10 *1216:A 0
11 *1208:X 5.39379e-05
12 *250:152 0.000468771
13 *250:146 0.00102643
14 *250:133 0.000972706
15 *250:103 0.000967108
16 *250:99 0.00234241
17 *250:91 0.00161804
18 *250:83 0.001272
19 *250:75 0.00247839
20 *250:36 0.00102403
21 *250:18 0.00152994
22 *250:8 0.00228994
23 *1210:A *1210:B 0.000714571
24 *1212:A *1212:B 5.3304e-05
25 *1213:A *1213:B 5.90675e-06
26 *1213:A *251:114 1.5769e-05
27 *1215:A *1215:B 0.000621362
28 *1215:A *297:12 0
29 *250:18 *265:112 0
30 *250:36 *1210:B 2.86356e-05
31 *250:36 *1216:B 5.67058e-05
32 *250:36 *251:14 0.000388597
33 *250:36 *251:29 0
34 *250:36 *265:22 0
35 *250:36 *293:54 0.000422378
36 *250:36 *295:8 4.07715e-05
37 *250:36 *300:16 7.06229e-05
38 *250:36 *301:23 4.10714e-05
39 *250:75 *1059:A 5.9836e-05
40 *250:75 *1110:A1 0.000164338
41 *250:75 *1110:B1 0.000244783
42 *250:75 *265:112 0
43 *250:75 *357:19 0.000100561
44 *250:75 *359:40 2.88979e-05
45 *250:83 *1221:B 1.01436e-05
46 *250:91 *1218:B 8.22421e-06
47 *250:91 *271:76 2.93845e-05
48 *250:91 *305:24 0.000165504
49 *250:99 *1072:A1 5.84008e-05
50 *250:99 *1218:B 3.55167e-05
51 *250:99 *1252:CLK 5.28679e-05
52 *250:99 *271:76 0.000141559
53 *250:103 *1072:S 0
54 *250:103 *1215:B 7.93051e-05
55 *250:103 *1257:CLK 0
56 *250:103 *251:80 0.000806123
57 *250:103 *251:82 0.000141879
58 *250:103 *266:120 0
59 *250:133 *1072:A0 5.6246e-05
60 *250:133 *1072:A1 6.30728e-05
61 *250:133 *1072:S 6.78519e-05
62 *250:146 *1211:B 5.67058e-05
63 *250:146 *313:41 0
64 *250:146 *348:14 0.000783729
65 *250:152 *298:16 5.50049e-05
66 *250:152 *313:41 0
67 *250:152 *348:14 0.000910063
68 *1069:A *1213:A 0.000102163
69 *1073:A *250:133 0.000146197
70 *1091:A1 *250:99 5.33483e-06
71 *1163:C *250:75 4.9515e-05
72 *1163:D *250:75 9.84794e-05
73 *1163:D *250:83 4.82774e-05
74 *1165:B1 *250:83 0.00012758
75 *1165:B2 *250:83 5.02976e-05
76 *1208:A *250:8 2.45549e-06
77 *1208:A *250:75 0.000114092
78 *1263:RESET_B *250:18 5.56356e-05
79 *1263:RESET_B *250:36 3.59255e-05
80 *1268:D *250:75 0.000224733
81 *68:10 *250:146 0.000273191
82 *69:8 *250:103 0.000196549
83 *71:10 *250:152 0.000110922
84 *72:10 *1215:A 1.94812e-05
85 *73:10 *250:36 0.000195238
86 *75:10 *250:99 9.84851e-05
87 *77:8 *250:83 4.08537e-05
88 *108:6 *250:99 5.56389e-05
89 *113:10 *250:133 2.86398e-05
90 *115:8 *250:152 0.000141888
91 *133:32 *250:18 0
92 *133:32 *250:36 3.83059e-05
93 *133:32 *250:75 0
94 *154:8 *250:99 0.000138444
95 *157:46 *250:83 1.33535e-05
96 *165:28 *250:18 0
97 *170:10 *250:146 7.48331e-05
98 *170:10 *250:152 1.14452e-05
99 *180:10 *250:18 0
100 *187:14 *250:91 0
101 *248:10 *250:18 0
102 *248:12 *250:18 0
103 *249:29 *250:18 0.00085066
*RES
1 *1208:X *250:8 38.6214 
2 *250:8 *250:18 32.3793 
3 *250:18 *250:36 47.8971 
4 *250:36 *1216:A 23 
5 *250:36 *1210:A 30.7679 
6 *250:18 *1217:A 23 
7 *250:8 *250:75 40.6857 
8 *250:75 *250:83 42.8843 
9 *250:83 *250:91 35.3443 
10 *250:91 *250:99 20.6936 
11 *250:99 *250:103 28.5264 
12 *250:103 *1215:A 48.2536 
13 *250:103 *1212:A 38.6214 
14 *250:99 *250:133 8.76214 
15 *250:133 *1211:A 23.4971 
16 *250:133 *250:146 28.3607 
17 *250:146 *250:152 27.7393 
18 *250:152 *1214:A 23 
19 *250:146 *1213:A 40.0921 
20 *250:91 *1218:A 23 
21 *250:75 *1221:A 23 
*END

*D_NET *251 0.0259353
*CONN
*I *1221:B I *D sky130_fd_sc_hd__nor2_1
*I *1211:B I *D sky130_fd_sc_hd__nor2_1
*I *1213:B I *D sky130_fd_sc_hd__nor2_1
*I *1214:B I *D sky130_fd_sc_hd__nor2_1
*I *1212:B I *D sky130_fd_sc_hd__nor2_1
*I *1215:B I *D sky130_fd_sc_hd__nor2_1
*I *1218:B I *D sky130_fd_sc_hd__nor2_1
*I *1210:B I *D sky130_fd_sc_hd__nor2_1
*I *1216:B I *D sky130_fd_sc_hd__nor2_1
*I *1217:B I *D sky130_fd_sc_hd__nor2_1
*I *1209:X O *D sky130_fd_sc_hd__clkbuf_4
*CAP
1 *1221:B 0.000129865
2 *1211:B 0.000843989
3 *1213:B 6.25923e-05
4 *1214:B 0
5 *1212:B 0.000126539
6 *1215:B 0.000360312
7 *1218:B 4.15976e-05
8 *1210:B 0.000174387
9 *1216:B 1.15232e-05
10 *1217:B 0
11 *1209:X 0
12 *251:122 0.000384874
13 *251:114 0.00118932
14 *251:82 0.000529279
15 *251:80 0.00122107
16 *251:76 0.00310165
17 *251:61 0.002879
18 *251:55 0.0011464
19 *251:53 0.00163008
20 *251:29 0.000636655
21 *251:21 0.00208082
22 *251:14 0.000413734
23 *251:4 0.000413734
24 *1210:B *300:16 0.0008433
25 *1216:B *300:16 2.32004e-05
26 *1218:B *271:76 3.26132e-05
27 *1221:B *274:44 0
28 *251:29 *265:22 0.000268212
29 *251:29 *293:54 0
30 *251:53 *1082:A1 0.000217414
31 *251:53 *265:10 0.000281944
32 *251:53 *265:22 0.000139647
33 *251:53 *293:44 0.000129412
34 *251:53 *293:54 0
35 *251:53 *357:25 0.000182826
36 *251:53 *357:31 0.000366055
37 *251:61 *274:44 0
38 *251:80 *1072:S 0
39 *251:114 *266:114 9.32829e-05
40 *251:114 *297:8 0.000209039
41 *251:122 *288:12 0
42 *251:122 *298:16 9.67842e-05
43 *251:122 *337:10 0.000253235
44 *251:122 *348:14 0.000306423
45 *1069:A *251:114 4.9662e-05
46 *1076:A *251:53 3.71198e-05
47 *1085:A1 *251:53 1.16773e-05
48 *1163:D *1221:B 1.12487e-05
49 *1210:A *1210:B 0.000714571
50 *1212:A *1212:B 5.3304e-05
51 *1213:A *1213:B 5.90675e-06
52 *1213:A *251:114 1.5769e-05
53 *1215:A *1215:B 0.000621362
54 *63:8 *251:80 0
55 *65:8 *251:53 0
56 *70:10 *1213:B 4.2573e-05
57 *70:10 *251:114 5.3304e-05
58 *70:10 *251:122 0.00019746
59 *110:8 *251:53 6.67764e-05
60 *133:32 *251:14 0.000166513
61 *133:32 *251:53 0
62 *155:6 *251:53 0.000119207
63 *155:26 *251:53 0.000279936
64 *155:51 *251:53 0.00011262
65 *155:55 *1221:B 6.79006e-05
66 *155:55 *251:61 2.19236e-05
67 *156:40 *251:61 2.7035e-05
68 *161:50 *251:53 7.4878e-05
69 *165:8 *251:53 0
70 *171:10 *1215:B 9.48318e-05
71 *171:10 *251:80 0.000155059
72 *171:10 *251:82 0.000132665
73 *187:14 *1218:B 8.22421e-06
74 *236:12 *251:61 5.04375e-05
75 *248:20 *251:14 0.000310641
76 *250:36 *1210:B 2.86356e-05
77 *250:36 *1216:B 5.67058e-05
78 *250:36 *251:14 0.000388597
79 *250:36 *251:29 0
80 *250:83 *1221:B 1.01436e-05
81 *250:91 *1218:B 8.22421e-06
82 *250:99 *1218:B 3.55167e-05
83 *250:103 *1215:B 7.93051e-05
84 *250:103 *251:80 0.000806123
85 *250:103 *251:82 0.000141879
86 *250:146 *1211:B 5.67058e-05
*RES
1 *1209:X *251:4 23 
2 *251:4 *251:14 38.265 
3 *251:14 *1217:B 23 
4 *251:4 *251:21 15 
5 *251:21 *251:29 22.6021 
6 *251:29 *1216:B 23.6214 
7 *251:29 *1210:B 33.1914 
8 *251:21 *251:53 47.8736 
9 *251:53 *251:55 15 
10 *251:55 *251:61 10.7041 
11 *251:61 *1218:B 47.0046 
12 *251:61 *251:76 3.31893 
13 *251:76 *251:80 19.9418 
14 *251:80 *251:82 1.90571 
15 *251:82 *1215:B 46.8864 
16 *251:82 *1212:B 40.4443 
17 *251:80 *251:114 28.1743 
18 *251:114 *251:122 41.8071 
19 *251:122 *1214:B 23 
20 *251:114 *1213:B 24.4707 
21 *251:76 *1211:B 48.5441 
22 *251:55 *1221:B 40.5271 
*END

*D_NET *252 0.00183804
*CONN
*I *1283:A I *D sky130_fd_sc_hd__clkbuf_16
*I *1219:X O *D sky130_fd_sc_hd__buf_1
*CAP
1 *1283:A 0
2 *1219:X 0
3 *252:12 0.000600821
4 *252:6 0.000600821
5 *252:12 *323:8 0
6 *252:12 *325:10 8.62783e-05
7 *129:10 *252:12 0
8 *134:50 *252:12 0.000121375
9 *134:60 *252:12 0.000299187
10 *134:119 *252:12 7.28526e-05
11 *138:47 *252:12 0
12 *241:24 *252:12 5.67058e-05
13 *242:14 *252:12 0
*RES
1 *1219:X *252:6 38 
2 *252:6 *252:12 28.4436 
3 *252:12 *1283:A 23 
*END

*D_NET *253 0.00840383
*CONN
*I *1135:A2 I *D sky130_fd_sc_hd__a21oi_1
*I *1130:A3 I *D sky130_fd_sc_hd__a31o_1
*I *1106:D I *D sky130_fd_sc_hd__and4_1
*I *1136:A3 I *D sky130_fd_sc_hd__a31o_1
*I *1168:A0 I *D sky130_fd_sc_hd__mux2_1
*I *1141:A I *D sky130_fd_sc_hd__xnor2_1
*I *1146:A0 I *D sky130_fd_sc_hd__mux2_1
*I *1144:A I *D sky130_fd_sc_hd__inv_2
*I *1241:Q O *D sky130_fd_sc_hd__dfrtp_4
*CAP
1 *1135:A2 0.000143161
2 *1130:A3 0
3 *1106:D 0.000302296
4 *1136:A3 0
5 *1168:A0 0.000353771
6 *1141:A 4.4295e-05
7 *1146:A0 0.000204995
8 *1144:A 0.000317461
9 *1241:Q 0
10 *253:71 0.000339702
11 *253:69 0.000391387
12 *253:58 0.000544795
13 *253:36 0.000541114
14 *253:12 0.000900272
15 *253:10 0.000717359
16 *253:4 0.000530471
17 *1106:D *1135:A1 1.14452e-05
18 *1106:D *1171:A1 1.14452e-05
19 *1106:D *254:28 0.000408129
20 *1106:D *254:30 0.000160182
21 *1106:D *254:71 6.16531e-05
22 *1106:D *255:57 0
23 *1135:A2 *1135:A1 0.000141815
24 *1144:A *1145:A0 0
25 *1144:A *287:14 6.57448e-05
26 *1144:A *352:10 2.93747e-05
27 *1146:A0 *293:38 0.000183733
28 *253:10 *267:85 0.000271906
29 *253:12 *293:12 0
30 *253:12 *293:23 0
31 *253:36 *293:12 0
32 *253:58 *254:20 5.50106e-05
33 *253:69 *1130:B1 0.000136738
34 *253:69 *1136:A1 2.63026e-05
35 *253:69 *254:20 2.47127e-05
36 *253:69 *254:26 6.82228e-06
37 *253:71 *1135:A1 5.01986e-05
38 *1136:B1 *253:69 5.40241e-05
39 *1137:A1_N *1135:A2 2.02517e-05
40 *1146:S *1146:A0 0.000148688
41 *1168:S *1141:A 0.000100069
42 *1168:S *1168:A0 0.000272377
43 *1241:RESET_B *253:10 1.72202e-05
44 *1241:RESET_B *253:58 0.000275035
45 *197:38 *1106:D 3.70094e-05
46 *197:86 *1106:D 0
47 *203:123 *1135:A2 2.93845e-05
48 *217:10 *1106:D 0.000113739
49 *217:10 *253:71 4.21594e-06
50 *221:10 *253:58 4.5051e-05
51 *221:10 *253:69 0.000146197
52 *227:10 *1144:A 0.000164282
53 *246:105 *1135:A2 0
54 *246:105 *253:71 0
*RES
1 *1241:Q *253:4 23 
2 *253:4 *253:10 18.9771 
3 *253:10 *253:12 6.83571 
4 *253:12 *1144:A 44.0486 
5 *253:12 *1146:A0 42.93 
6 *253:10 *253:36 2.61 
7 *253:36 *1141:A 39.0979 
8 *253:36 *1168:A0 43.2821 
9 *253:4 *253:58 7.76786 
10 *253:58 *1136:A3 23 
11 *253:58 *253:69 19.93 
12 *253:69 *253:71 0.849286 
13 *253:71 *1106:D 46.2443 
14 *253:71 *1130:A3 38 
15 *253:69 *1135:A2 41.5214 
*END

*D_NET *254 0.01067
*CONN
*I *1142:A0 I *D sky130_fd_sc_hd__mux2_1
*I *1137:B1 I *D sky130_fd_sc_hd__a2bb2o_1
*I *1136:A2 I *D sky130_fd_sc_hd__a31o_1
*I *1135:A1 I *D sky130_fd_sc_hd__a21oi_1
*I *1130:A2 I *D sky130_fd_sc_hd__a31o_1
*I *1140:A I *D sky130_fd_sc_hd__nand2_1
*I *1106:C I *D sky130_fd_sc_hd__and4_1
*I *1171:A1 I *D sky130_fd_sc_hd__mux2_1
*I *1242:Q O *D sky130_fd_sc_hd__dfrtp_4
*CAP
1 *1142:A0 0.00022987
2 *1137:B1 0
3 *1136:A2 0
4 *1135:A1 0.000140754
5 *1130:A2 0
6 *1140:A 0.000106593
7 *1106:C 0
8 *1171:A1 0.000494791
9 *1242:Q 0.000558413
10 *254:71 0.000176232
11 *254:58 0.000580538
12 *254:30 0.000605955
13 *254:28 0.00074582
14 *254:26 0.000469172
15 *254:20 0.00053491
16 *254:14 0.000446574
17 *254:12 0.000972931
18 *1135:A1 *255:28 1.14452e-05
19 *1135:A1 *255:32 0.000231221
20 *1171:A1 *256:41 0.000104123
21 *1171:A1 *261:65 0.000184415
22 *1171:A1 *352:10 0.00034291
23 *254:12 *255:28 7.84788e-05
24 *254:14 *255:28 0
25 *254:20 *255:32 0
26 *254:26 *1136:A1 0.000267723
27 *254:26 *255:51 4.17736e-05
28 *254:58 *293:38 0.000789021
29 *254:71 *255:32 1.14452e-05
30 *1106:D *1135:A1 1.14452e-05
31 *1106:D *1171:A1 1.14452e-05
32 *1106:D *254:28 0.000408129
33 *1106:D *254:30 0.000160182
34 *1106:D *254:71 6.16531e-05
35 *1126:A2 *1140:A 6.29487e-05
36 *1126:B1 *1140:A 0
37 *1131:A *254:58 8.6949e-05
38 *1135:A2 *1135:A1 0.000141815
39 *1136:B1 *254:28 2.29192e-05
40 *1136:B1 *254:71 1.06693e-05
41 *1146:S *254:58 5.41385e-05
42 *1171:S *1171:A1 9.67842e-05
43 *1191:A *254:12 5.38787e-05
44 *1191:A *254:14 4.6318e-06
45 *1191:A *254:20 0
46 *1192:A *254:12 3.84797e-05
47 *53:10 *254:12 4.58924e-05
48 *186:76 *1171:A1 0
49 *186:76 *254:30 0
50 *186:76 *254:58 0.000319689
51 *186:80 *254:28 0.00010485
52 *192:56 *254:58 0
53 *192:60 *1140:A 1.8788e-05
54 *197:18 *254:58 0
55 *197:38 *1171:A1 0.000109316
56 *201:66 *254:58 0.000120857
57 *201:81 *1142:A0 5.3304e-05
58 *201:88 *1142:A0 0.00025304
59 *203:123 *1135:A1 1.21972e-05
60 *221:10 *254:14 0
61 *221:10 *254:20 0
62 *222:8 *254:12 0
63 *223:8 *254:12 0.00014411
64 *246:105 *1135:A1 0
65 *253:58 *254:20 5.50106e-05
66 *253:69 *254:20 2.47127e-05
67 *253:69 *254:26 6.82228e-06
68 *253:71 *1135:A1 5.01986e-05
*RES
1 *1242:Q *254:12 49.7346 
2 *254:12 *254:14 2.9725 
3 *254:14 *254:20 19.06 
4 *254:20 *254:26 19.3293 
5 *254:26 *254:28 5.42714 
6 *254:28 *254:30 2.25786 
7 *254:30 *1171:A1 49.5586 
8 *254:30 *1106:C 38 
9 *254:28 *254:58 42.4286 
10 *254:58 *1140:A 40.5479 
11 *254:26 *254:71 0.849286 
12 *254:71 *1130:A2 38 
13 *254:71 *1135:A1 41.9357 
14 *254:20 *1136:A2 23 
15 *254:14 *1137:B1 38 
16 *254:12 *1142:A0 42.4329 
*END

*D_NET *255 0.0090568
*CONN
*I *1138:A0 I *D sky130_fd_sc_hd__mux2_1
*I *1135:B1 I *D sky130_fd_sc_hd__a21oi_1
*I *1130:A1 I *D sky130_fd_sc_hd__a31o_1
*I *1132:A1 I *D sky130_fd_sc_hd__a22o_1
*I *1173:A1 I *D sky130_fd_sc_hd__mux2_1
*I *1171:A0 I *D sky130_fd_sc_hd__mux2_1
*I *1106:B I *D sky130_fd_sc_hd__and4_1
*I *1136:A1 I *D sky130_fd_sc_hd__a31o_1
*I *1243:Q O *D sky130_fd_sc_hd__dfrtp_4
*CAP
1 *1138:A0 0
2 *1135:B1 0
3 *1130:A1 0
4 *1132:A1 0
5 *1173:A1 6.89843e-05
6 *1171:A0 0
7 *1106:B 0.000280274
8 *1136:A1 6.03836e-05
9 *1243:Q 0.000112104
10 *255:74 0.00035753
11 *255:66 0.00070705
12 *255:57 0.00079512
13 *255:51 0.000399328
14 *255:34 0.000242906
15 *255:32 0.000184744
16 *255:28 0.00056098
17 *255:16 0.000896497
18 *255:8 0.00061486
19 *1136:A1 *1130:B1 3.22879e-05
20 *1173:A1 *256:24 8.76309e-05
21 *255:51 *1130:B1 0.000235324
22 *255:66 *256:24 0.000210605
23 *255:74 *261:65 0.000144501
24 *1106:D *255:57 0
25 *1107:A *1106:B 2.4754e-05
26 *1107:A *255:66 2.18409e-05
27 *1132:B1 *255:51 0.000145163
28 *1135:A1 *255:28 1.14452e-05
29 *1135:A1 *255:32 0.000231221
30 *1136:B1 *1136:A1 0.000100061
31 *1136:B1 *255:32 4.6318e-06
32 *1138:A1 *255:16 9.91024e-05
33 *54:10 *255:16 0.00010018
34 *197:6 *1106:B 0.000181125
35 *197:18 *1106:B 0.000136738
36 *197:86 *255:57 0.000139647
37 *201:119 *255:16 5.50106e-05
38 *201:119 *255:28 0.000163178
39 *203:12 *255:74 4.18957e-05
40 *203:14 *255:74 9.03979e-05
41 *203:18 *255:74 4.08537e-05
42 *217:10 *255:57 0.000100994
43 *222:8 *255:28 0.000158801
44 *246:75 *255:57 0.000515229
45 *246:85 *255:51 0
46 *246:105 *255:28 0
47 *246:105 *255:57 2.77955e-05
48 *246:109 *255:16 0.000215233
49 *247:107 *255:16 3.46673e-05
50 *253:69 *1136:A1 2.63026e-05
51 *254:12 *255:28 7.84788e-05
52 *254:14 *255:28 0
53 *254:20 *255:32 0
54 *254:26 *1136:A1 0.000267723
55 *254:26 *255:51 4.17736e-05
56 *254:71 *255:32 1.14452e-05
*RES
1 *1243:Q *255:8 39.9057 
2 *255:8 *255:16 25.7921 
3 *255:16 *255:28 23.265 
4 *255:28 *255:32 18.3143 
5 *255:32 *255:34 0.497143 
6 *255:34 *1136:A1 26.0243 
7 *255:34 *255:51 5.09571 
8 *255:51 *255:57 37.1879 
9 *255:57 *1106:B 26.9564 
10 *255:57 *255:66 3.95643 
11 *255:66 *255:74 36.2971 
12 *255:74 *1171:A0 23 
13 *255:66 *1173:A1 24.0979 
14 *255:51 *1132:A1 23 
15 *255:32 *1130:A1 23 
16 *255:28 *1135:B1 38 
17 *255:16 *1138:A0 23 
*END

*D_NET *256 0.00882193
*CONN
*I *1133:A0 I *D sky130_fd_sc_hd__mux2_1
*I *1130:B1 I *D sky130_fd_sc_hd__a31o_1
*I *1175:A1 I *D sky130_fd_sc_hd__mux2_1
*I *1173:A0 I *D sky130_fd_sc_hd__mux2_1
*I *1127:A1 I *D sky130_fd_sc_hd__a22o_1
*I *1106:A I *D sky130_fd_sc_hd__and4_1
*I *1244:Q O *D sky130_fd_sc_hd__dfrtp_2
*CAP
1 *1133:A0 0.000226129
2 *1130:B1 0.000522734
3 *1175:A1 0
4 *1173:A0 0
5 *1127:A1 0
6 *1106:A 1.80505e-05
7 *1244:Q 0.000704423
8 *256:53 0.000522734
9 *256:41 0.000397233
10 *256:24 0.000858261
11 *256:16 0.0008462
12 *256:10 0.000530024
13 *256:6 0.00105735
14 *1106:A *257:88 5.50049e-05
15 *1133:A0 *1244:CLK 3.22051e-05
16 *256:6 *1244:CLK 8.06804e-06
17 *256:6 *311:8 3.97968e-05
18 *256:10 *267:56 0.000130103
19 *256:16 *267:56 0.000576374
20 *256:24 *257:88 0.000254741
21 *256:41 *267:12 8.94394e-05
22 *256:41 *352:10 0.000105706
23 *1107:A *256:24 0.0002263
24 *1127:A2 *256:41 5.50106e-05
25 *1136:A1 *1130:B1 3.22879e-05
26 *1171:A1 *256:41 0.000104123
27 *1173:A1 *256:24 8.76309e-05
28 *1173:S *256:24 5.12254e-05
29 *186:101 *1130:B1 5.3304e-05
30 *197:6 *256:24 1.56762e-05
31 *197:18 *1106:A 2.93747e-05
32 *197:18 *256:24 9.62764e-05
33 *201:104 *1133:A0 2.57604e-05
34 *203:12 *256:16 0
35 *203:123 *1133:A0 6.17437e-06
36 *203:123 *256:10 0
37 *203:143 *256:16 0.000135114
38 *214:10 *256:41 0
39 *218:10 *1130:B1 6.79214e-05
40 *219:10 *1133:A0 2.07484e-05
41 *246:85 *1130:B1 2.61526e-05
42 *247:79 *1130:B1 0.000231602
43 *253:69 *1130:B1 0.000136738
44 *255:51 *1130:B1 0.000235324
45 *255:66 *256:24 0.000210605
*RES
1 *1244:Q *256:6 31.7207 
2 *256:6 *256:10 16.9057 
3 *256:10 *256:16 23.99 
4 *256:16 *256:24 11.165 
5 *256:24 *1106:A 23.6214 
6 *256:24 *256:41 37.4157 
7 *256:41 *1127:A1 23 
8 *256:16 *1173:A0 23 
9 *256:10 *256:53 15 
10 *256:53 *1175:A1 23 
11 *256:53 *1130:B1 34.7657 
12 *256:6 *1133:A0 27.8264 
*END

*D_NET *257 0.0135099
*CONN
*I *1175:A0 I *D sky130_fd_sc_hd__mux2_1
*I *1128:A0 I *D sky130_fd_sc_hd__mux2_1
*I *1126:A1 I *D sky130_fd_sc_hd__a21oi_1
*I *1125:A I *D sky130_fd_sc_hd__or2_1
*I *1121:A2 I *D sky130_fd_sc_hd__a31o_1
*I *1122:B1 I *D sky130_fd_sc_hd__a2bb2o_1
*I *1120:A1 I *D sky130_fd_sc_hd__a21oi_1
*I *1108:C I *D sky130_fd_sc_hd__and4_1
*I *1115:A2 I *D sky130_fd_sc_hd__a31oi_1
*I *1177:A1 I *D sky130_fd_sc_hd__mux2_1
*I *1245:Q O *D sky130_fd_sc_hd__dfrtp_4
*CAP
1 *1175:A0 0
2 *1128:A0 0
3 *1126:A1 0.000192375
4 *1125:A 0
5 *1121:A2 0
6 *1122:B1 0
7 *1120:A1 0
8 *1108:C 0
9 *1115:A2 0
10 *1177:A1 6.25201e-05
11 *1245:Q 0
12 *257:119 0.000550561
13 *257:90 0.000328285
14 *257:88 0.000646708
15 *257:51 0.000109504
16 *257:36 0.000226753
17 *257:34 0.000815745
18 *257:26 0.00129392
19 *257:18 0.00059626
20 *257:14 0.000214093
21 *257:8 0.00112514
22 *257:4 0.00101417
23 *1177:A1 *1108:A 6.9805e-05
24 *257:8 *359:12 5.0155e-05
25 *257:14 *1121:A1 2.4754e-05
26 *257:14 *293:44 0.000108672
27 *257:18 *1121:A1 0.000109901
28 *257:26 *1121:A1 8.93923e-05
29 *257:26 *258:8 3.30826e-05
30 *257:26 *258:12 0.000385766
31 *257:26 *258:26 5.67058e-05
32 *257:34 *258:38 1.00084e-05
33 *257:34 *287:14 0.000138195
34 *257:36 *1108:A 6.68919e-05
35 *257:51 *287:14 0.000136486
36 *257:88 *293:44 0.000533125
37 *257:119 *267:23 0.000488373
38 *257:119 *267:45 0.000139647
39 *257:119 *267:56 0.000596394
40 *257:119 *359:12 4.51675e-05
41 *1099:A *257:14 9.84851e-05
42 *1106:A *257:88 5.50049e-05
43 *1121:A3 *257:18 1.14154e-05
44 *1122:A2_N *257:18 5.50106e-05
45 *1126:A2 *1126:A1 0.000162206
46 *1126:B1 *257:88 1.37232e-05
47 *1126:B1 *257:90 9.16362e-05
48 *1177:S *1177:A1 5.50106e-05
49 *186:40 *257:26 0
50 *186:44 *257:26 0
51 *186:130 *257:14 1.03836e-05
52 *186:130 *257:18 1.56665e-05
53 *197:18 *1126:A1 3.3958e-05
54 *197:18 *257:88 0.00011673
55 *197:18 *257:90 0.000365652
56 *197:38 *257:14 9.63815e-05
57 *197:38 *257:88 0.000274857
58 *197:44 *257:14 1.58805e-05
59 *197:44 *257:26 2.4754e-05
60 *197:44 *257:34 3.22879e-05
61 *197:53 *257:14 9.84794e-05
62 *197:53 *257:18 1.72202e-05
63 *197:55 *257:18 7.88926e-05
64 *197:55 *257:36 5.50049e-05
65 *198:18 *257:34 9.20311e-06
66 *203:20 *257:14 4.5051e-05
67 *203:46 *1177:A1 0.00010253
68 *203:46 *257:36 4.21378e-05
69 *203:79 *257:26 1.12863e-05
70 *204:8 *257:51 0.000138727
71 *205:12 *257:51 5.3304e-05
72 *215:10 *257:88 0.000156609
73 *215:10 *257:90 3.7122e-06
74 *230:23 *257:119 0.000602123
75 *246:85 *257:119 5.3304e-05
76 *256:24 *257:88 0.000254741
*RES
1 *1245:Q *257:4 23 
2 *257:4 *257:8 22.2914 
3 *257:8 *257:14 20.0129 
4 *257:14 *257:18 2.54786 
5 *257:18 *257:26 39.0521 
6 *257:26 *257:34 41.7864 
7 *257:34 *257:36 1.57429 
8 *257:36 *1177:A1 25.0507 
9 *257:36 *257:51 32.5271 
10 *257:51 *1115:A2 23 
11 *257:34 *1108:C 23 
12 *257:26 *1120:A1 23 
13 *257:18 *1122:B1 23 
14 *257:14 *1121:A2 23 
15 *257:8 *257:88 29.8936 
16 *257:88 *257:90 3.95643 
17 *257:90 *1125:A 23 
18 *257:90 *1126:A1 26.3764 
19 *257:88 *1128:A0 23 
20 *257:4 *257:119 48.1871 
21 *257:119 *1175:A0 23 
*END

*D_NET *258 0.00621397
*CONN
*I *1121:A1 I *D sky130_fd_sc_hd__a31o_1
*I *1120:B1 I *D sky130_fd_sc_hd__a21oi_1
*I *1123:A0 I *D sky130_fd_sc_hd__mux2_1
*I *1108:B I *D sky130_fd_sc_hd__and4_1
*I *1115:A1 I *D sky130_fd_sc_hd__a31oi_1
*I *1177:A0 I *D sky130_fd_sc_hd__mux2_1
*I *1116:A I *D sky130_fd_sc_hd__nand2_1
*I *1246:Q O *D sky130_fd_sc_hd__dfrtp_2
*CAP
1 *1121:A1 0.000222125
2 *1120:B1 0
3 *1123:A0 0
4 *1108:B 0
5 *1115:A1 0
6 *1177:A0 0
7 *1116:A 0
8 *1246:Q 0.000233743
9 *258:59 0.000394313
10 *258:49 0.000530941
11 *258:38 0.000291997
12 *258:28 0.000366892
13 *258:26 0.000433347
14 *258:12 0.000336803
15 *258:8 0.000570847
16 *258:28 *1108:A 5.68958e-05
17 *258:38 *287:14 4.99753e-06
18 *258:49 *259:46 0
19 *258:59 *259:46 9.58714e-05
20 *1117:B1 *258:59 0.000127981
21 *1122:A1_N *258:26 4.48566e-05
22 *1123:S *258:26 2.77855e-05
23 *1179:B1_N *258:59 0
24 *131:76 *1121:A1 2.11827e-05
25 *131:76 *258:8 0
26 *186:40 *258:8 0
27 *186:130 *1121:A1 0.000181098
28 *197:44 *1121:A1 0
29 *197:44 *258:12 0.000441335
30 *197:44 *258:26 5.50106e-05
31 *197:55 *258:26 2.9938e-05
32 *197:55 *258:28 0.00062401
33 *197:61 *258:38 5.21127e-05
34 *201:20 *258:26 2.8936e-05
35 *201:40 *258:26 6.02277e-06
36 *203:46 *258:38 8.50457e-05
37 *203:46 *258:59 1.32314e-05
38 *205:12 *258:38 5.20427e-05
39 *205:12 *258:49 3.60803e-05
40 *205:12 *258:59 4.95081e-05
41 *208:8 *258:26 8.85189e-05
42 *211:8 *258:26 0
43 *243:8 *258:59 8.91468e-07
44 *257:14 *1121:A1 2.4754e-05
45 *257:18 *1121:A1 0.000109901
46 *257:26 *1121:A1 8.93923e-05
47 *257:26 *258:8 3.30826e-05
48 *257:26 *258:12 0.000385766
49 *257:26 *258:26 5.67058e-05
50 *257:34 *258:38 1.00084e-05
*RES
1 *1246:Q *258:8 42.3707 
2 *258:8 *258:12 19.9093 
3 *258:12 *258:26 35.6757 
4 *258:26 *258:28 6.815 
5 *258:28 *258:38 33.3764 
6 *258:38 *1116:A 23 
7 *258:38 *258:49 2.92071 
8 *258:49 *258:59 36.8357 
9 *258:59 *1177:A0 23 
10 *258:49 *1115:A1 23 
11 *258:28 *1108:B 23 
12 *258:26 *1123:A0 23 
13 *258:12 *1120:B1 23 
14 *258:8 *1121:A1 43.655 
*END

*D_NET *259 0.00594625
*CONN
*I *1118:A0 I *D sky130_fd_sc_hd__mux2_1
*I *1115:B1 I *D sky130_fd_sc_hd__a31oi_1
*I *1179:A1 I *D sky130_fd_sc_hd__a21bo_1
*I *1108:A I *D sky130_fd_sc_hd__and4_1
*I *1104:A1 I *D sky130_fd_sc_hd__a21bo_1
*I *1247:Q O *D sky130_fd_sc_hd__dfrtp_1
*CAP
1 *1118:A0 0
2 *1115:B1 0
3 *1179:A1 0
4 *1108:A 0.000283078
5 *1104:A1 0.000416963
6 *1247:Q 0.000344654
7 *259:56 0.000215528
8 *259:46 0.000477412
9 *259:29 0.000776629
10 *259:25 0.00056049
11 *259:8 0.00109044
12 *259:56 *287:14 5.26204e-05
13 *1117:B1 *259:29 4.42688e-05
14 *1117:B1 *259:46 7.80251e-05
15 *1118:A1 *259:25 5.50106e-05
16 *1177:A1 *1108:A 6.9805e-05
17 *1177:S *1108:A 5.50106e-05
18 *1179:A2 *259:56 7.27085e-05
19 *1179:B1_N *259:56 0.000221533
20 *197:55 *1108:A 9.78729e-06
21 *198:8 *259:29 0
22 *198:18 *1104:A1 0.000175449
23 *198:18 *259:25 0.000275256
24 *198:18 *259:29 0
25 *201:20 *259:25 6.17437e-06
26 *201:28 *259:25 5.41288e-05
27 *203:56 *259:29 0.000116314
28 *203:56 *259:46 2.55642e-05
29 *204:8 *259:29 3.31683e-05
30 *204:8 *259:46 5.22857e-05
31 *205:12 *259:46 5.50106e-05
32 *206:8 *259:29 8.62876e-05
33 *243:10 *1104:A1 0
34 *243:10 *259:25 0
35 *243:10 *259:29 2.29895e-05
36 *257:36 *1108:A 6.68919e-05
37 *258:28 *1108:A 5.68958e-05
38 *258:49 *259:46 0
39 *258:59 *259:46 9.58714e-05
*RES
1 *1247:Q *259:8 41.9564 
2 *259:8 *1104:A1 46.2029 
3 *259:8 *259:25 23.2857 
4 *259:25 *259:29 19.7229 
5 *259:29 *1108:A 42.9093 
6 *259:29 *259:46 19.5571 
7 *259:46 *259:56 35.1579 
8 *259:56 *1179:A1 23 
9 *259:46 *1115:B1 23 
10 *259:25 *1118:A0 23 
*END

*D_NET *260 0.00111992
*CONN
*I *1103:B_N I *D sky130_fd_sc_hd__or2b_1
*I *1295:A I *D sky130_fd_sc_hd__dlygate4sd3_1
*I *1248:Q O *D sky130_fd_sc_hd__dfrtp_1
*CAP
1 *1103:B_N 0.000249892
2 *1295:A 0
3 *1248:Q 0.000250075
4 *260:12 0.000499967
5 *1103:B_N *1103:A 2.30292e-05
6 *1103:B_N *294:31 0
7 *1103:B_N *340:8 0
8 *260:12 *265:73 3.22051e-05
9 *194:14 *1103:B_N 0
10 *195:8 *1103:B_N 6.47558e-05
*RES
1 *1248:Q *260:12 41.9771 
2 *260:12 *1295:A 38 
3 *260:12 *1103:B_N 42.6607 
*END

*D_NET *261 0.0143559
*CONN
*I *1288:A I *D sky130_fd_sc_hd__clkbuf_16
*I *1289:A I *D sky130_fd_sc_hd__clkbuf_16
*I *1286:A I *D sky130_fd_sc_hd__clkbuf_16
*I *1287:A I *D sky130_fd_sc_hd__clkbuf_16
*I *1282:X O *D sky130_fd_sc_hd__clkbuf_16
*CAP
1 *1288:A 0
2 *1289:A 3.75247e-05
3 *1286:A 0
4 *1287:A 0.00017423
5 *1282:X 0
6 *261:65 0.00132648
7 *261:42 0.00217641
8 *261:31 0.000662557
9 *261:8 0.00161218
10 *261:4 0.0015878
11 *1287:A *270:52 1.40958e-05
12 *261:8 *266:74 0
13 *261:8 *354:48 2.2119e-05
14 *261:31 *1074:C1 3.54747e-05
15 *261:31 *270:52 5.85822e-06
16 *261:31 *274:44 0.000227208
17 *261:42 *268:31 0
18 *261:42 *305:16 0
19 *261:42 *359:87 0
20 *261:65 *267:21 8.06804e-06
21 *261:65 *352:10 4.53056e-05
22 *1074:D1 *261:31 0.000144494
23 *1081:C_N *261:31 0.00018282
24 *1171:A1 *261:65 0.000184415
25 *94:10 *261:42 0.000247678
26 *131:110 *261:42 0
27 *133:101 *261:42 0.000569635
28 *133:101 *261:65 2.11157e-05
29 *134:14 *261:42 0.000165314
30 *134:14 *261:65 3.34818e-06
31 *155:96 *261:8 4.88602e-05
32 *155:104 *261:8 0.000113153
33 *155:125 *261:8 0.000186015
34 *155:125 *261:42 0
35 *157:46 *261:8 0.000837457
36 *160:10 *261:8 0.000166513
37 *161:37 *261:31 0.0002513
38 *161:93 *1287:A 8.18724e-05
39 *161:93 *261:8 5.62433e-05
40 *162:14 *261:8 6.25068e-05
41 *162:30 *261:31 0.000789543
42 *173:10 *261:31 4.65096e-05
43 *193:20 *1287:A 6.48049e-05
44 *193:20 *261:8 0.00165033
45 *193:33 *261:8 8.62876e-05
46 *193:33 *261:42 0.000221992
47 *230:23 *261:65 1.09886e-05
48 *240:8 *1289:A 1.94693e-05
49 *240:8 *261:65 6.34418e-05
50 *255:74 *261:65 0.000144501
*RES
1 *1282:X *261:4 23 
2 *261:4 *261:8 38.7386 
3 *261:8 *1287:A 41.3971 
4 *261:8 *261:31 32.3586 
5 *261:31 *1286:A 23 
6 *261:4 *261:42 32.11 
7 *261:42 *1289:A 38.6214 
8 *261:42 *261:65 40.1834 
9 *261:65 *1288:A 23 
*END

*D_NET *262 0.00422658
*CONN
*I *1285:A I *D sky130_fd_sc_hd__clkbuf_16
*I *1284:A I *D sky130_fd_sc_hd__clkbuf_16
*I *1283:X O *D sky130_fd_sc_hd__clkbuf_16
*CAP
1 *1285:A 0
2 *1284:A 0
3 *1283:X 0
4 *262:35 0.000695332
5 *262:14 0.000768811
6 *262:4 0.00146414
7 *262:14 *268:10 0
8 *262:14 *268:14 0
9 *262:14 *268:56 0.000246757
10 *262:14 *329:8 8.85189e-05
11 *262:14 *361:25 2.01531e-05
12 *262:35 *268:56 0
13 *262:35 *268:73 0
14 *262:35 *361:40 3.83778e-05
15 *262:35 *361:50 5.94125e-05
16 *1167:B1 *262:35 3.30197e-05
17 *47:8 *262:14 6.53445e-05
18 *92:10 *262:14 6.48274e-05
19 *193:50 *262:14 0
20 *193:62 *262:14 0.000323831
21 *241:24 *262:35 5.6667e-05
22 *242:6 *262:35 3.71251e-05
23 *247:41 *262:14 9.53705e-05
24 *247:52 *262:14 0.000168892
*RES
1 *1283:X *262:4 23 
2 *262:4 *262:14 47.8143 
3 *262:14 *1284:A 23 
4 *262:4 *262:35 42.0764 
5 *262:35 *1285:A 23 
*END

*D_NET *263 0.00472616
*CONN
*I *1233:A I *D sky130_fd_sc_hd__inv_2
*I *1222:A I *D sky130_fd_sc_hd__inv_2
*I *1231:A I *D sky130_fd_sc_hd__inv_2
*I *1232:A I *D sky130_fd_sc_hd__inv_2
*I *1284:X O *D sky130_fd_sc_hd__clkbuf_16
*CAP
1 *1233:A 0
2 *1222:A 0.000525941
3 *1231:A 0.00026552
4 *1232:A 0.000276949
5 *1284:X 0.000180949
6 *263:47 0.000448284
7 *263:32 0.00104086
8 *263:19 0.000332159
9 *263:8 0.000457898
10 *1222:A *1267:CLK 3.51895e-05
11 *1231:A *1045:A1 5.50049e-05
12 *1231:A *334:8 8.85189e-05
13 *1231:A *359:91 0
14 *1231:A *362:20 0
15 *1232:A *1351:A 0.000144501
16 *1232:A *321:10 3.22051e-05
17 *263:47 *303:14 0
18 *1276:RESET_B *1231:A 0
19 *78:8 *263:47 0.000143733
20 *122:10 *1231:A 0
21 *122:10 *263:32 0
22 *122:10 *263:47 0
23 *134:60 *263:47 0
24 *138:32 *1231:A 5.91279e-05
25 *138:32 *1232:A 0.000141142
26 *138:32 *263:32 3.83778e-05
27 *138:32 *263:47 0.000459797
*RES
1 *1284:X *263:8 25.5479 
2 *263:8 *1232:A 29.235 
3 *263:8 *263:19 15 
4 *263:19 *1231:A 42.64 
5 *263:19 *263:32 1.20143 
6 *263:32 *1222:A 45.1879 
7 *263:32 *263:47 27.1179 
8 *263:47 *1233:A 23 
*END

*D_NET *264 0.00943322
*CONN
*I *1229:A I *D sky130_fd_sc_hd__inv_2
*I *1235:A I *D sky130_fd_sc_hd__inv_2
*I *1234:A I *D sky130_fd_sc_hd__inv_2
*I *1228:A I *D sky130_fd_sc_hd__inv_2
*I *1230:A I *D sky130_fd_sc_hd__inv_2
*I *1220:A I *D sky130_fd_sc_hd__inv_2
*I *1285:X O *D sky130_fd_sc_hd__clkbuf_16
*CAP
1 *1229:A 0
2 *1235:A 0
3 *1234:A 2.34823e-05
4 *1228:A 0
5 *1230:A 9.98584e-06
6 *1220:A 0
7 *1285:X 0.000370801
8 *264:87 0.000955391
9 *264:70 0.000310174
10 *264:53 0.000602077
11 *264:46 0.000556356
12 *264:38 0.000907891
13 *264:29 0.000301644
14 *264:18 0.000256507
15 *264:12 0.00137416
16 *264:12 *314:8 8.85189e-05
17 *264:29 *277:45 0.000230316
18 *264:38 *268:73 0.000228909
19 *264:38 *277:45 0.000446275
20 *264:46 *317:8 8.85189e-05
21 *264:53 *268:73 0.000608228
22 *264:53 *277:45 0.000318946
23 *1032:S *264:46 2.24973e-05
24 *1033:A0 *264:29 0.000139969
25 *1033:S *264:29 1.59071e-05
26 *1034:A *1230:A 4.00259e-06
27 *1034:A *264:29 0.000115574
28 *1034:A *264:38 7.42621e-05
29 *1035:B *264:12 0
30 *1035:B *264:87 0
31 *1039:B *264:46 0
32 *1167:B1 *264:12 0
33 *1167:B1 *264:87 0
34 *41:10 *264:12 0.000136486
35 *85:8 *264:87 0
36 *123:10 *264:46 0.000136486
37 *134:119 *264:46 0
38 *136:95 *264:70 0.000353849
39 *136:103 *264:46 4.81497e-05
40 *136:120 *264:46 9.67547e-05
41 *138:49 *264:70 0.000116224
42 *138:63 *264:87 0
43 *152:10 *264:46 8.4047e-05
44 *242:6 *264:12 0.000184527
45 *242:14 *264:70 0.000226306
46 *246:91 *264:87 0
*RES
1 *1285:X *264:12 45.4054 
2 *264:12 *264:18 15.7768 
3 *264:18 *1220:A 23 
4 *264:18 *264:29 6.50429 
5 *264:29 *1230:A 23.4971 
6 *264:29 *264:38 4.90929 
7 *264:38 *264:46 41.2064 
8 *264:46 *1228:A 23 
9 *264:38 *264:53 8.24429 
10 *264:53 *1234:A 23.4971 
11 *264:53 *264:70 38.5757 
12 *264:70 *1235:A 23 
13 *264:12 *264:87 38.6873 
14 *264:87 *1229:A 23 
*END

*D_NET *265 0.0157699
*CONN
*I *1254:CLK I *D sky130_fd_sc_hd__dfrtp_1
*I *1256:CLK I *D sky130_fd_sc_hd__dfrtp_1
*I *1268:CLK I *D sky130_fd_sc_hd__dfstp_2
*I *1248:CLK I *D sky130_fd_sc_hd__dfrtp_1
*I *1246:CLK I *D sky130_fd_sc_hd__dfrtp_2
*I *1247:CLK I *D sky130_fd_sc_hd__dfrtp_1
*I *1255:CLK I *D sky130_fd_sc_hd__dfrtp_2
*I *1263:CLK I *D sky130_fd_sc_hd__dfrtp_1
*I *1262:CLK I *D sky130_fd_sc_hd__dfrtp_1
*I *1286:X O *D sky130_fd_sc_hd__clkbuf_16
*CAP
1 *1254:CLK 0
2 *1256:CLK 0.000161655
3 *1268:CLK 0
4 *1248:CLK 0
5 *1246:CLK 0
6 *1247:CLK 0
7 *1255:CLK 9.61844e-05
8 *1263:CLK 0.00059783
9 *1262:CLK 4.01155e-05
10 *1286:X 0.000571522
11 *265:112 0.000368632
12 *265:92 0.000853954
13 *265:79 0.00147325
14 *265:73 0.00124426
15 *265:71 0.00144344
16 *265:54 0.000816569
17 *265:37 0.00117481
18 *265:26 0.00142971
19 *265:22 0.00168341
20 *265:12 0.0004386
21 *265:10 0.000571522
22 *265:10 *293:54 0.000188606
23 *265:26 *1281:A 2.64616e-05
24 *265:79 *294:14 6.63801e-05
25 odata[6] *265:37 0.000114083
26 *1196:A *265:112 5.50106e-05
27 *1200:A *265:71 0
28 *1200:A *265:73 7.24365e-05
29 *1200:A *265:112 5.42593e-05
30 *1208:A *265:112 0
31 *1248:D *265:73 1.10317e-05
32 *1248:RESET_B *265:73 0.000122858
33 *1254:D *265:22 6.17437e-06
34 *1262:D *265:26 5.83407e-05
35 *1262:RESET_B *265:26 0.000220162
36 *65:8 *265:22 0
37 *111:10 *265:54 0.00014411
38 *165:34 *265:37 0
39 *201:28 *265:79 0.000324456
40 *201:28 *265:92 0.000129402
41 *243:10 *265:79 0
42 *248:10 *265:112 0.000357939
43 *248:12 *265:71 0
44 *248:20 *265:37 0
45 *248:20 *265:54 0
46 *248:20 *265:71 0
47 *248:116 *265:112 6.38845e-05
48 *249:59 *265:71 6.68793e-05
49 *250:18 *265:112 0
50 *250:36 *265:22 0
51 *250:75 *265:112 0
52 *251:29 *265:22 0.000268212
53 *251:53 *265:10 0.000281944
54 *251:53 *265:22 0.000139647
55 *260:12 *265:73 3.22051e-05
*RES
1 *1286:X *265:10 49.02 
2 *265:10 *265:12 15 
3 *265:12 *265:22 37.4986 
4 *265:22 *265:26 14.8107 
5 *265:26 *1262:CLK 23.8493 
6 *265:26 *265:37 20.7793 
7 *265:37 *1263:CLK 45.9543 
8 *265:37 *265:54 5.42714 
9 *265:54 *1255:CLK 39.595 
10 *265:54 *265:71 23.3893 
11 *265:71 *265:73 12.5321 
12 *265:73 *265:79 29.5 
13 *265:79 *1247:CLK 38 
14 *265:79 *265:92 30.37 
15 *265:92 *1246:CLK 23 
16 *265:73 *1248:CLK 23 
17 *265:71 *265:112 38.0993 
18 *265:112 *1268:CLK 23 
19 *265:22 *1256:CLK 26.0036 
20 *265:12 *1254:CLK 23 
*END

*D_NET *266 0.0186112
*CONN
*I *1257:CLK I *D sky130_fd_sc_hd__dfrtp_1
*I *1259:CLK I *D sky130_fd_sc_hd__dfrtp_1
*I *1260:CLK I *D sky130_fd_sc_hd__dfrtp_1
*I *1261:CLK I *D sky130_fd_sc_hd__dfrtp_1
*I *1258:CLK I *D sky130_fd_sc_hd__dfrtp_1
*I *1253:CLK I *D sky130_fd_sc_hd__dfrtp_1
*I *1252:CLK I *D sky130_fd_sc_hd__dfrtp_1
*I *1266:CLK I *D sky130_fd_sc_hd__dfrtp_1
*I *1264:CLK I *D sky130_fd_sc_hd__dfrtp_4
*I *1249:CLK I *D sky130_fd_sc_hd__dfrtp_1
*I *1250:CLK I *D sky130_fd_sc_hd__dfrtp_4
*I *1251:CLK I *D sky130_fd_sc_hd__dfrtp_4
*I *1287:X O *D sky130_fd_sc_hd__clkbuf_16
*CAP
1 *1257:CLK 0.00038959
2 *1259:CLK 8.76363e-05
3 *1260:CLK 0
4 *1261:CLK 0.000209855
5 *1258:CLK 4.05058e-05
6 *1253:CLK 0.000345567
7 *1252:CLK 0.000113238
8 *1266:CLK 0
9 *1264:CLK 0.000167781
10 *1249:CLK 2.15849e-05
11 *1250:CLK 3.73511e-05
12 *1251:CLK 0.000333369
13 *1287:X 0.000196802
14 *266:124 0.00050735
15 *266:120 0.00069185
16 *266:114 0.00119336
17 *266:103 0.00106869
18 *266:81 0.000605514
19 *266:74 0.000585162
20 *266:61 0.00139461
21 *266:53 0.00109885
22 *266:49 0.00105152
23 *266:36 0.000461712
24 *266:12 0.000736036
25 *266:10 0.00079233
26 *1251:CLK *305:24 0
27 *1253:CLK *1087:A 2.3529e-05
28 *1253:CLK *270:92 2.08106e-05
29 *1253:CLK *293:135 0.000776468
30 *1253:CLK *310:20 0
31 *1257:CLK *1070:A1 0
32 *1257:CLK *1072:S 0.000122304
33 *1257:CLK *297:21 0.000139647
34 *1257:CLK *313:23 8.51329e-05
35 *1261:CLK *297:12 0
36 *1261:CLK *299:26 5.50106e-05
37 *1261:CLK *313:41 0
38 *266:12 *305:24 0
39 *266:53 *270:75 5.55278e-05
40 *266:53 *271:47 0.000351608
41 *266:53 *271:62 0.000182873
42 *266:53 *271:72 0.000118174
43 *266:53 *310:20 0
44 *266:61 *271:62 2.45549e-06
45 *266:61 *271:72 1.05235e-05
46 *266:61 *354:10 5.3304e-05
47 *266:74 *293:101 0.000852514
48 *266:74 *305:24 0.00104693
49 *266:81 *270:75 4.6318e-06
50 *266:81 *270:92 6.7742e-05
51 *266:81 *271:72 9.60831e-05
52 *266:103 *269:10 0.000134267
53 *266:120 *297:12 0.000141888
54 *266:120 *297:21 0.000133595
55 *266:124 *297:12 0
56 *266:124 *313:41 0
57 *1102:A *266:36 0.000144501
58 *1249:D *266:36 2.93747e-05
59 *1249:D *266:49 6.9169e-05
60 *1250:D *1250:CLK 2.93431e-05
61 *1264:D *1264:CLK 3.22511e-05
62 *69:8 *266:120 0
63 *106:10 *266:12 0
64 *107:8 *1251:CLK 5.79559e-05
65 *108:6 *1252:CLK 0.00011501
66 *116:14 *1261:CLK 7.24021e-05
67 *120:8 *266:74 3.56537e-05
68 *121:10 *266:74 3.88504e-05
69 *135:25 *266:53 4.08641e-05
70 *154:8 *1252:CLK 0.000136738
71 *155:96 *266:74 0
72 *156:93 *266:74 0
73 *158:27 *266:74 5.3051e-05
74 *181:23 *1264:CLK 0.00011451
75 *181:23 *266:53 4.99753e-06
76 *181:23 *266:61 0.000275509
77 *183:8 *1253:CLK 0.000274203
78 *185:10 *1253:CLK 0.000124464
79 *185:10 *266:81 3.76959e-05
80 *187:14 *266:10 0.000104869
81 *187:14 *266:12 6.16531e-05
82 *234:10 *1253:CLK 6.7177e-06
83 *250:99 *1252:CLK 5.28679e-05
84 *250:103 *1257:CLK 0
85 *250:103 *266:120 0
86 *251:114 *266:114 9.32829e-05
87 *261:8 *266:74 0
*RES
1 *1287:X *266:10 41.1279 
2 *266:10 *266:12 6.48357 
3 *266:12 *1251:CLK 44.0486 
4 *266:12 *1250:CLK 38.6214 
5 *266:10 *266:36 18.9564 
6 *266:36 *1249:CLK 23.4971 
7 *266:36 *266:49 3.64571 
8 *266:49 *266:53 23.5964 
9 *266:53 *266:61 26.6207 
10 *266:61 *1264:CLK 26.48 
11 *266:61 *266:74 46.6957 
12 *266:74 *1266:CLK 23 
13 *266:53 *266:81 2.25786 
14 *266:81 *1252:CLK 41.0243 
15 *266:81 *1253:CLK 49.0614 
16 *266:49 *266:103 6.815 
17 *266:103 *1258:CLK 23.8493 
18 *266:103 *266:114 21.3386 
19 *266:114 *266:120 21.1936 
20 *266:120 *266:124 20.7793 
21 *266:124 *1261:CLK 42.5364 
22 *266:124 *1260:CLK 38 
23 *266:120 *1259:CLK 24.5743 
24 *266:114 *1257:CLK 46.6379 
*END

*D_NET *267 0.017497
*CONN
*I *1240:CLK I *D sky130_fd_sc_hd__dfrtp_1
*I *1243:CLK I *D sky130_fd_sc_hd__dfrtp_4
*I *1242:CLK I *D sky130_fd_sc_hd__dfrtp_4
*I *1241:CLK I *D sky130_fd_sc_hd__dfrtp_4
*I *1244:CLK I *D sky130_fd_sc_hd__dfrtp_2
*I *1269:CLK I *D sky130_fd_sc_hd__dfrtp_1
*I *1270:CLK I *D sky130_fd_sc_hd__dfrtp_4
*I *1271:CLK I *D sky130_fd_sc_hd__dfrtp_1
*I *1245:CLK I *D sky130_fd_sc_hd__dfrtp_4
*I *1288:X O *D sky130_fd_sc_hd__clkbuf_16
*CAP
1 *1240:CLK 0.00033411
2 *1243:CLK 0
3 *1242:CLK 0.000160749
4 *1241:CLK 0
5 *1244:CLK 8.68807e-05
6 *1269:CLK 9.08064e-05
7 *1270:CLK 3.48199e-05
8 *1271:CLK 0.000512515
9 *1245:CLK 0
10 *1288:X 0
11 *267:85 0.00109055
12 *267:79 0.00176891
13 *267:73 0.00118018
14 *267:69 0.00138344
15 *267:56 0.000870355
16 *267:45 0.000568598
17 *267:23 0.00092027
18 *267:21 0.00117205
19 *267:12 0.000416897
20 *267:4 0.00113492
21 *1240:CLK *308:12 0
22 *267:12 *352:10 9.5877e-05
23 *267:21 *352:10 0.00089427
24 *267:23 *352:10 0.000189157
25 *267:73 *1149:A0 1.24376e-05
26 *1100:C *1271:CLK 0.000174591
27 *1133:A0 *1244:CLK 3.22051e-05
28 *1191:B *267:85 0
29 *1192:B *267:79 9.84851e-05
30 *1240:D *1240:CLK 1.17112e-05
31 *1241:RESET_B *267:85 0.000267393
32 *1243:D *267:73 7.41133e-05
33 *1243:D *267:79 3.22051e-05
34 *53:10 *267:79 5.70419e-05
35 *98:8 *1242:CLK 4.83778e-05
36 *100:10 *267:56 1.01436e-05
37 *100:10 *267:69 0.000111852
38 *101:14 *267:12 6.06668e-05
39 *154:70 *1270:CLK 5.3304e-05
40 *154:70 *1271:CLK 0.000366759
41 *154:70 *267:23 3.47781e-05
42 *186:44 *267:12 0
43 *191:14 *1271:CLK 6.17437e-06
44 *192:16 *1271:CLK 7.65883e-06
45 *192:48 *267:23 0
46 *197:38 *267:12 0
47 *201:81 *267:85 0
48 *201:104 *1244:CLK 0
49 *203:18 *267:23 0
50 *215:10 *267:12 0
51 *218:10 *267:56 0
52 *224:25 *267:85 0.000189157
53 *225:10 *267:85 0
54 *226:10 *1242:CLK 0
55 *226:10 *267:85 0
56 *230:23 *1240:CLK 2.76611e-06
57 *230:23 *267:23 6.15592e-05
58 *230:23 *267:56 9.8993e-05
59 *230:23 *267:69 0.00017344
60 *231:10 *1240:CLK 0
61 *231:10 *267:73 8.16277e-05
62 *237:29 *1270:CLK 2.32101e-05
63 *241:12 *1269:CLK 9.67842e-05
64 *247:22 *1270:CLK 9.5877e-05
65 *247:107 *267:56 0
66 *247:107 *267:69 0
67 *253:10 *267:85 0.000271906
68 *256:6 *1244:CLK 8.06804e-06
69 *256:10 *267:56 0.000130103
70 *256:16 *267:56 0.000576374
71 *256:41 *267:12 8.94394e-05
72 *257:119 *267:23 0.000488373
73 *257:119 *267:45 0.000139647
74 *257:119 *267:56 0.000596394
75 *261:65 *267:21 8.06804e-06
*RES
1 *1288:X *267:4 23 
2 *267:4 *267:12 37.5814 
3 *267:12 *1245:CLK 23 
4 *267:4 *267:21 25.6264 
5 *267:21 *267:23 9.65286 
6 *267:23 *1271:CLK 47.8186 
7 *267:23 *1270:CLK 39.0979 
8 *267:21 *267:45 1.90571 
9 *267:45 *1269:CLK 39.5743 
10 *267:45 *267:56 12.1179 
11 *267:56 *1244:CLK 39.595 
12 *267:56 *267:69 8.24429 
13 *267:69 *267:73 28.0086 
14 *267:73 *267:79 24.6943 
15 *267:79 *267:85 36.2114 
16 *267:85 *1241:CLK 23 
17 *267:79 *1242:CLK 40.9621 
18 *267:73 *1243:CLK 23 
19 *267:69 *1240:CLK 42.8057 
*END

*D_NET *268 0.0117985
*CONN
*I *1219:A I *D sky130_fd_sc_hd__buf_1
*I *1239:CLK I *D sky130_fd_sc_hd__dfrtp_1
*I *1237:CLK I *D sky130_fd_sc_hd__dfrtp_1
*I *1236:CLK I *D sky130_fd_sc_hd__dfrtp_1
*I *1272:CLK I *D sky130_fd_sc_hd__dfrtp_1
*I *1238:CLK I *D sky130_fd_sc_hd__dfrtp_1
*I *1289:X O *D sky130_fd_sc_hd__clkbuf_16
*CAP
1 *1219:A 0
2 *1239:CLK 0.000121887
3 *1237:CLK 0
4 *1236:CLK 0.000292479
5 *1272:CLK 0
6 *1238:CLK 0.000273665
7 *1289:X 7.04204e-05
8 *268:73 0.000793607
9 *268:56 0.00134023
10 *268:31 0.000509802
11 *268:16 0.00112063
12 *268:14 0.000970286
13 *268:10 0.000477058
14 *268:6 0.000631577
15 *1239:CLK *1239:D 6.17437e-06
16 *268:6 *1155:A1 1.24376e-05
17 *268:10 *361:25 0.000136486
18 *268:10 *361:40 2.46345e-05
19 *268:16 *305:16 0.000140935
20 *268:16 *305:48 0.000177104
21 *268:16 *310:10 7.99999e-05
22 *268:31 *1272:D 6.99492e-05
23 *268:31 *359:87 0.000244526
24 *268:31 *359:119 0.000181943
25 *268:56 *1155:A1 4.08664e-05
26 *268:56 *328:8 4.34876e-05
27 *268:73 *277:18 0
28 *268:73 *277:45 0
29 *1155:A2 *268:6 1.29754e-05
30 *1167:B1 *268:73 0
31 *1238:D *1238:CLK 7.88828e-05
32 *1238:RESET_B *268:16 8.79516e-05
33 *1308:A *268:56 5.50106e-05
34 *47:8 *268:14 0.000141888
35 *83:10 *268:31 6.48049e-05
36 *125:10 *268:73 0
37 *131:110 *1238:CLK 0.000270873
38 *131:110 *268:31 8.06039e-05
39 *131:127 *268:31 0.000120672
40 *132:20 *268:31 6.15314e-05
41 *193:50 *268:10 0.000151898
42 *193:50 *268:14 0.000638448
43 *193:62 *268:6 8.08729e-06
44 *193:62 *268:56 7.89191e-05
45 *240:8 *268:6 0.000121918
46 *240:16 *268:6 3.42179e-05
47 *240:16 *268:56 0.000112087
48 *247:52 *268:56 0.000664003
49 *247:52 *268:73 0.000169683
50 *261:42 *268:31 0
51 *262:14 *268:10 0
52 *262:14 *268:14 0
53 *262:14 *268:56 0.000246757
54 *262:35 *268:56 0
55 *262:35 *268:73 0
56 *264:38 *268:73 0.000228909
57 *264:53 *268:73 0.000608228
*RES
1 *1289:X *268:6 25.0507 
2 *268:6 *268:10 17.9621 
3 *268:10 *268:14 23.5964 
4 *268:14 *268:16 7.29143 
5 *268:16 *1238:CLK 29.815 
6 *268:16 *268:31 41.165 
7 *268:31 *1272:CLK 23 
8 *268:14 *1236:CLK 27.9093 
9 *268:10 *1237:CLK 38 
10 *268:6 *268:56 26.4757 
11 *268:56 *1239:CLK 40.0714 
12 *268:56 *268:73 32.0893 
13 *268:73 *1219:A 23 
*END

*D_NET *269 0.00273446
*CONN
*I *1043:C I *D sky130_fd_sc_hd__and3_1
*I *1009:C I *D sky130_fd_sc_hd__or3_1
*I *1047:A I *D sky130_fd_sc_hd__clkbuf_4
*I *1249:Q O *D sky130_fd_sc_hd__dfrtp_1
*CAP
1 *1043:C 0.00015329
2 *1009:C 0
3 *1047:A 0.000127091
4 *1249:Q 0.000418607
5 *269:16 0.000175608
6 *269:10 0.000620414
7 *1043:C *270:75 7.70038e-05
8 *1047:A *1009:A 5.3304e-05
9 *1047:A *313:19 0.000108672
10 *269:10 *270:75 2.71291e-05
11 *269:10 *271:47 0.000124712
12 *269:16 *313:19 5.50049e-05
13 *1075:A2 *1047:A 3.22879e-05
14 *135:6 *1047:A 2.4754e-05
15 *153:10 *1043:C 5.26733e-06
16 *248:73 *1043:C 0.000167443
17 *248:73 *269:10 0.000429602
18 *266:103 *269:10 0.000134267
*RES
1 *1249:Q *269:10 48.2121 
2 *269:10 *269:16 16.1186 
3 *269:16 *1047:A 26.0036 
4 *269:16 *1009:C 23 
5 *269:10 *1043:C 41.2211 
*END

*D_NET *270 0.0136411
*CONN
*I *1009:B I *D sky130_fd_sc_hd__or3_1
*I *1087:C I *D sky130_fd_sc_hd__or4b_1
*I *1162:B I *D sky130_fd_sc_hd__nand3_1
*I *1043:B I *D sky130_fd_sc_hd__and3_1
*I *1094:B1_N I *D sky130_fd_sc_hd__a21bo_1
*I *1054:A_N I *D sky130_fd_sc_hd__nand2b_2
*I *1074:C1 I *D sky130_fd_sc_hd__o2111a_1
*I *1095:B I *D sky130_fd_sc_hd__or2_1
*I *1048:B I *D sky130_fd_sc_hd__nand2_2
*I *1250:Q O *D sky130_fd_sc_hd__dfrtp_4
*CAP
1 *1009:B 0
2 *1087:C 0
3 *1162:B 0.000576199
4 *1043:B 0
5 *1094:B1_N 0
6 *1054:A_N 4.11324e-05
7 *1074:C1 0.000226125
8 *1095:B 0
9 *1048:B 0.000213349
10 *1250:Q 0.000358476
11 *270:92 0.000994651
12 *270:75 0.000583768
13 *270:52 0.000510021
14 *270:32 0.000493864
15 *270:28 0.000702293
16 *270:24 0.00105557
17 *270:14 0.00107368
18 *270:12 0.00022417
19 *270:8 0.000550833
20 *1048:B *271:18 0.00010018
21 *1048:B *271:20 0.000182547
22 *1048:B *271:30 5.48611e-05
23 *1162:B *1057:A1 1.24376e-05
24 *1162:B *271:93 0.000187646
25 *270:8 *271:10 0
26 *270:8 *271:47 0
27 *270:12 *313:19 0.000267167
28 *270:14 *313:19 5.50106e-05
29 *270:24 *305:24 0.000100293
30 *270:24 *313:19 0.000872674
31 *270:32 *305:24 0
32 *270:75 *271:47 5.94125e-05
33 *270:75 *271:62 0.000192087
34 *270:92 *1087:A 9.67842e-05
35 *270:92 *293:135 0.000135557
36 *1043:C *270:75 7.70038e-05
37 *1074:D1 *1074:C1 7.80701e-05
38 *1090:A1 *1162:B 9.75779e-05
39 *1090:A1 *270:92 0.000105295
40 *1094:A2 *270:28 1.41077e-05
41 *1101:B1 *270:32 1.86973e-05
42 *1102:A *270:24 7.27182e-05
43 *1102:A *270:28 0.000100733
44 *1253:CLK *270:92 2.08106e-05
45 *1287:A *270:52 1.40958e-05
46 *60:10 *270:8 0.000194318
47 *153:10 *270:75 1.14452e-05
48 *153:10 *270:92 0.000160877
49 *154:14 *270:92 7.83687e-05
50 *156:14 *1162:B 9.64943e-05
51 *156:16 *1162:B 0.000740388
52 *156:18 *1162:B 0.000175903
53 *156:24 *1162:B 5.65429e-05
54 *156:108 *270:32 6.48049e-05
55 *156:108 *270:52 8.4047e-05
56 *161:14 *270:32 1.19796e-05
57 *161:14 *270:52 2.11887e-05
58 *161:93 *270:52 9.84851e-05
59 *164:10 *1162:B 1.59071e-05
60 *185:10 *270:92 0.000135037
61 *187:14 *270:24 9.77972e-05
62 *188:16 *270:32 0.000108046
63 *248:73 *270:8 0
64 *248:73 *270:75 2.04774e-05
65 *248:79 *270:75 0
66 *249:111 *270:8 0.000169674
67 *249:122 *270:8 0.000583089
68 *261:31 *1074:C1 3.54747e-05
69 *261:31 *270:52 5.85822e-06
70 *266:53 *270:75 5.55278e-05
71 *266:81 *270:75 4.6318e-06
72 *266:81 *270:92 6.7742e-05
73 *269:10 *270:75 2.71291e-05
*RES
1 *1250:Q *270:8 48.005 
2 *270:8 *270:12 18.0036 
3 *270:12 *270:14 0.621429 
4 *270:14 *270:24 45.2664 
5 *270:24 *270:28 17.5271 
6 *270:28 *270:32 21.1314 
7 *270:32 *1048:B 27.4536 
8 *270:32 *1095:B 23 
9 *270:28 *270:52 18.7286 
10 *270:52 *1074:C1 26.0036 
11 *270:52 *1054:A_N 23.7354 
12 *270:24 *1094:B1_N 23 
13 *270:14 *270:75 19.7229 
14 *270:75 *1043:B 38 
15 *270:75 *270:92 24.1971 
16 *270:92 *1162:B 37.1479 
17 *270:92 *1087:C 23 
18 *270:12 *1009:B 23 
*END

*D_NET *271 0.0132001
*CONN
*I *1043:A I *D sky130_fd_sc_hd__and3_1
*I *1087:A I *D sky130_fd_sc_hd__or4b_1
*I *1162:A I *D sky130_fd_sc_hd__nand3_1
*I *1057:A1 I *D sky130_fd_sc_hd__a31oi_1
*I *1058:A2 I *D sky130_fd_sc_hd__a41o_1
*I *1009:A I *D sky130_fd_sc_hd__or3_1
*I *1095:A I *D sky130_fd_sc_hd__or2_1
*I *1048:A I *D sky130_fd_sc_hd__nand2_2
*I *1074:B1 I *D sky130_fd_sc_hd__o2111a_1
*I *1251:Q O *D sky130_fd_sc_hd__dfrtp_4
*CAP
1 *1043:A 0
2 *1087:A 0.000101248
3 *1162:A 0
4 *1057:A1 0.000152651
5 *1058:A2 0.000178521
6 *1009:A 2.32701e-05
7 *1095:A 0
8 *1048:A 0
9 *1074:B1 0
10 *1251:Q 0.000560887
11 *271:110 8.52552e-05
12 *271:93 0.000584575
13 *271:76 0.00140213
14 *271:72 0.00121294
15 *271:62 0.00034712
16 *271:47 0.000576062
17 *271:30 0.000516461
18 *271:20 0.000603393
19 *271:18 0.00107205
20 *271:10 0.00198642
21 *1009:A *313:19 5.3304e-05
22 *1058:A2 *1058:A1 1.21972e-05
23 *271:10 *310:20 0
24 *271:30 *274:8 5.61207e-05
25 *271:30 *274:19 9.46108e-05
26 *271:30 *274:32 5.26204e-05
27 *271:47 *310:20 0
28 *271:76 *293:101 1.40958e-05
29 *271:93 *293:101 3.62323e-05
30 *1047:A *1009:A 5.3304e-05
31 *1048:B *271:18 0.00010018
32 *1048:B *271:20 0.000182547
33 *1048:B *271:30 5.48611e-05
34 *1058:B1 *1058:A2 4.96717e-05
35 *1058:B1 *271:76 2.18409e-05
36 *1090:A1 *1087:A 9.67842e-05
37 *1091:A1 *271:76 8.19642e-06
38 *1162:B *1057:A1 1.24376e-05
39 *1162:B *271:93 0.000187646
40 *1218:B *271:76 3.26132e-05
41 *1250:D *271:18 0.00036023
42 *1253:CLK *1087:A 2.3529e-05
43 *61:10 *271:10 6.63698e-05
44 *62:8 *271:10 0
45 *136:10 *271:72 8.30566e-06
46 *136:29 *1087:A 5.97612e-05
47 *136:29 *271:72 1.3822e-05
48 *155:96 *1058:A2 8.06804e-06
49 *155:96 *271:93 2.49836e-05
50 *156:40 *1057:A1 7.51453e-06
51 *156:40 *271:110 1.05441e-05
52 *156:51 *271:110 4.90011e-05
53 *156:93 *271:93 0.000108681
54 *157:8 *271:30 2.93335e-05
55 *157:27 *271:30 0
56 *163:22 *1057:A1 6.85038e-06
57 *163:22 *271:110 1.00446e-05
58 *164:10 *1057:A1 2.60619e-05
59 *164:10 *271:93 8.4047e-05
60 *181:23 *271:72 0.000179419
61 *185:10 *1087:A 8.62876e-05
62 *185:10 *271:72 8.82299e-05
63 *236:12 *271:110 2.11066e-05
64 *248:73 *271:47 0
65 *249:111 *271:10 0
66 *250:91 *271:76 2.93845e-05
67 *250:99 *271:76 0.000141559
68 *266:53 *271:47 0.000351608
69 *266:53 *271:62 0.000182873
70 *266:53 *271:72 0.000118174
71 *266:61 *271:62 2.45549e-06
72 *266:61 *271:72 1.05235e-05
73 *266:81 *271:72 9.60831e-05
74 *269:10 *271:47 0.000124712
75 *270:8 *271:10 0
76 *270:8 *271:47 0
77 *270:75 *271:47 5.94125e-05
78 *270:75 *271:62 0.000192087
79 *270:92 *1087:A 9.67842e-05
*RES
1 *1251:Q *271:10 48.7921 
2 *271:10 *271:18 29.9557 
3 *271:18 *271:20 2.05071 
4 *271:20 *271:30 41.3929 
5 *271:30 *1074:B1 23 
6 *271:20 *1048:A 23 
7 *271:18 *1095:A 23 
8 *271:10 *271:47 10.3571 
9 *271:47 *1009:A 38.6214 
10 *271:47 *271:62 18.2314 
11 *271:62 *271:72 20.7586 
12 *271:72 *271:76 26.1029 
13 *271:76 *1058:A2 25.0507 
14 *271:76 *271:93 36.235 
15 *271:93 *1057:A1 25.5479 
16 *271:93 *271:110 31.4707 
17 *271:110 *1162:A 23 
18 *271:72 *1087:A 41.0036 
19 *271:62 *1043:A 23 
*END

*D_NET *272 0.00188878
*CONN
*I *1081:A I *D sky130_fd_sc_hd__or3b_1
*I *1077:A I *D sky130_fd_sc_hd__inv_2
*I *1254:Q O *D sky130_fd_sc_hd__dfrtp_1
*CAP
1 *1081:A 0
2 *1077:A 3.69806e-05
3 *1254:Q 0.000256406
4 *272:29 0.000127395
5 *272:14 0.000325191
6 *272:8 0.000417222
7 *1077:A *1080:A1 7.89223e-05
8 *272:8 *274:8 0
9 *272:14 *1080:A1 2.46906e-05
10 *1078:A2 *272:8 0
11 *1078:A2 *272:29 1.46784e-05
12 *1080:A2 *272:14 1.34914e-05
13 *1080:B1 *272:14 6.00355e-05
14 *155:10 *272:8 8.02348e-05
15 *155:18 *272:8 0.000166522
16 *161:37 *272:14 4.00259e-06
17 *176:8 *1077:A 0.000100061
18 *176:8 *272:14 9.77405e-05
19 *176:21 *272:29 5.7306e-05
20 *177:8 *272:8 2.79004e-05
21 *179:10 *272:29 0
*RES
1 *1254:Q *272:8 43.075 
2 *272:8 *272:14 18.5007 
3 *272:14 *1077:A 24.595 
4 *272:14 *272:29 32.2579 
5 *272:29 *1081:A 23 
*END

*D_NET *273 0.00799644
*CONN
*I *1074:A2 I *D sky130_fd_sc_hd__o2111a_1
*I *1163:B I *D sky130_fd_sc_hd__or4_1
*I *1110:A2 I *D sky130_fd_sc_hd__o311a_1
*I *1082:B1 I *D sky130_fd_sc_hd__a31o_1
*I *1080:A1 I *D sky130_fd_sc_hd__o31a_1
*I *1255:Q O *D sky130_fd_sc_hd__dfrtp_2
*CAP
1 *1074:A2 0
2 *1163:B 0.000175396
3 *1110:A2 0
4 *1082:B1 0.000130072
5 *1080:A1 9.73673e-05
6 *1255:Q 0.00063904
7 *273:72 0.000455694
8 *273:42 0.00058784
9 *273:38 0.00114925
10 *273:23 0.000661422
11 *273:6 0.000986649
12 *273:38 *313:6 5.3304e-05
13 *273:42 *274:44 0
14 *273:72 *274:44 0
15 *273:72 *313:6 0.000525411
16 *273:72 *313:19 4.17736e-05
17 *1077:A *1080:A1 7.89223e-05
18 *1080:A2 *1080:A1 0.000235687
19 *1080:A2 *273:6 8.39049e-06
20 *1080:A3 *1080:A1 5.47983e-06
21 *1080:B1 *1080:A1 7.86509e-06
22 *1082:A2 *1082:B1 2.96671e-05
23 *1082:A2 *273:38 0
24 *1082:A3 *1082:B1 0.00015386
25 *1082:A3 *273:38 7.02996e-05
26 *1086:B1 *1080:A1 0
27 *1086:C1 *1080:A1 2.02517e-05
28 *1086:C1 *273:6 0.000306338
29 *1163:C *1163:B 0.000230492
30 *154:40 *1163:B 8.16757e-06
31 *155:10 *273:42 0
32 *173:10 *273:72 8.62783e-05
33 *174:8 *273:38 6.30591e-05
34 *176:8 *1080:A1 1.59071e-05
35 *176:21 *273:23 0
36 *176:21 *273:42 8.21123e-05
37 *176:38 *1163:B 1.22803e-05
38 *176:38 *273:42 0.000609686
39 *179:10 *273:23 8.4047e-05
40 *179:14 *273:6 1.40958e-05
41 *179:26 *273:6 0.000137103
42 *181:12 *273:23 6.00922e-06
43 *182:8 *273:23 0.000104051
44 *200:10 *1163:B 9.84851e-05
45 *272:14 *1080:A1 2.46906e-05
*RES
1 *1255:Q *273:6 31.7207 
2 *273:6 *1080:A1 27.2257 
3 *273:6 *273:23 34.3707 
4 *273:23 *1082:B1 25.6929 
5 *273:23 *273:38 3.97714 
6 *273:38 *273:42 24.3007 
7 *273:42 *1110:A2 38 
8 *273:42 *1163:B 42.495 
9 *273:38 *273:72 37.54 
10 *273:72 *1074:A2 23 
*END

*D_NET *274 0.00529148
*CONN
*I *1074:A1 I *D sky130_fd_sc_hd__o2111a_1
*I *1163:A I *D sky130_fd_sc_hd__or4_1
*I *1110:A1 I *D sky130_fd_sc_hd__o311a_1
*I *1079:B1 I *D sky130_fd_sc_hd__a31o_1
*I *1078:A1 I *D sky130_fd_sc_hd__a21oi_1
*I *1256:Q O *D sky130_fd_sc_hd__dfrtp_1
*CAP
1 *1074:A1 0
2 *1163:A 0
3 *1110:A1 4.51087e-05
4 *1079:B1 6.1801e-05
5 *1078:A1 0.000359586
6 *1256:Q 0.000373
7 *274:44 0.000805422
8 *274:32 0.000912528
9 *274:19 0.000375697
10 *274:8 0.000894266
11 *274:44 *357:61 0
12 *1076:B *1078:A1 1.76557e-05
13 *1076:B *274:19 0
14 *1076:B *274:32 0
15 *1096:B *274:8 0
16 *1163:C *1110:A1 0.000228164
17 *1221:B *274:44 0
18 *155:10 *274:44 0.000192447
19 *155:18 *1078:A1 9.75779e-05
20 *155:18 *274:19 0
21 *155:55 *274:44 0
22 *157:27 *274:8 0
23 *157:27 *274:32 0
24 *161:16 *1079:B1 0.000141954
25 *161:37 *274:32 0
26 *173:10 *274:44 0
27 *174:30 *274:44 0.000186746
28 *174:32 *274:32 0
29 *174:32 *274:44 4.6318e-06
30 *190:10 *274:8 0
31 *250:75 *1110:A1 0.000164338
32 *251:61 *274:44 0
33 *261:31 *274:44 0.000227208
34 *271:30 *274:8 5.61207e-05
35 *271:30 *274:19 9.46108e-05
36 *271:30 *274:32 5.26204e-05
37 *272:8 *274:8 0
38 *273:42 *274:44 0
39 *273:72 *274:44 0
*RES
1 *1256:Q *274:8 44.8357 
2 *274:8 *1078:A1 42.9093 
3 *274:8 *274:19 3.66643 
4 *274:19 *1079:B1 39.5743 
5 *274:19 *274:32 17.9621 
6 *274:32 *274:44 44.7071 
7 *274:44 *1110:A1 25.5271 
8 *274:44 *1163:A 23 
9 *274:32 *1074:A1 23 
*END

*D_NET *275 0.00226159
*CONN
*I *1309:A I *D sky130_fd_sc_hd__dlygate4sd3_1
*I *1036:A1 I *D sky130_fd_sc_hd__mux2_1
*I *1273:Q O *D sky130_fd_sc_hd__dfrtp_1
*CAP
1 *1309:A 0
2 *1036:A1 0.000754736
3 *1273:Q 0.000119351
4 *275:21 0.000106478
5 *275:6 0.000980565
6 *1036:A1 *1036:A0 5.14746e-06
7 *1036:A1 *1273:CLK 2.13733e-05
8 *1013:S *275:21 0
9 *1036:S *1036:A1 0.000182793
10 *1273:D *1036:A1 2.64616e-05
11 *1273:RESET_B *1036:A1 1.22775e-06
12 *1273:RESET_B *275:6 2.26011e-05
13 *84:8 *275:21 4.08537e-05
14 *138:49 *275:21 0
*RES
1 *1273:Q *275:6 24.5743 
2 *275:6 *1036:A1 33.5229 
3 *275:6 *275:21 31.9057 
4 *275:21 *1309:A 23 
*END

*D_NET *276 0.00137112
*CONN
*I *1294:A I *D sky130_fd_sc_hd__dlygate4sd3_1
*I *1032:A1 I *D sky130_fd_sc_hd__mux2_1
*I *1274:Q O *D sky130_fd_sc_hd__dfrtp_1
*CAP
1 *1294:A 0
2 *1032:A1 0
3 *1274:Q 0.000124242
4 *276:23 0.000384026
5 *276:8 0.000508268
6 *276:8 *1032:A0 3.06971e-05
7 *276:23 *1032:A0 0
8 *276:23 *1041:B2 0
9 *276:23 *283:12 0.000100061
10 *276:23 *339:8 0
11 *1032:S *276:8 2.7142e-05
12 *1032:S *276:23 8.16279e-05
13 *1037:S *276:23 7.80354e-05
14 *138:63 *276:23 3.70187e-05
*RES
1 *1274:Q *276:8 25.5479 
2 *276:8 *1032:A1 23 
3 *276:8 *276:23 38.0993 
4 *276:23 *1294:A 23 
*END

*D_NET *277 0.0110895
*CONN
*I *1033:A1 I *D sky130_fd_sc_hd__mux2_1
*I *1028:A1 I *D sky130_fd_sc_hd__mux2_1
*I *1275:Q O *D sky130_fd_sc_hd__dfrtp_1
*CAP
1 *1033:A1 0
2 *1028:A1 0
3 *1275:Q 0
4 *277:45 0.000865239
5 *277:28 0.00141581
6 *277:18 0.00246146
7 *277:6 0.00191089
8 *277:28 *298:44 0
9 *277:28 *303:29 0.000114074
10 *277:28 *303:33 0
11 *277:28 *347:8 0
12 *1028:S *277:28 1.24376e-05
13 *1033:S *277:45 0.000182055
14 *1276:RESET_B *277:28 0
15 *50:10 *277:18 9.94233e-05
16 *88:10 *277:28 0.000124443
17 *132:42 *277:28 0.000716442
18 *132:59 *277:28 0.000476382
19 *132:65 *277:18 0.000431671
20 *132:77 *277:18 0.000700066
21 *132:77 *277:45 2.51071e-05
22 *134:95 *277:28 0
23 *134:119 *277:45 5.71709e-05
24 *140:10 *277:28 0
25 *144:10 *277:28 6.95872e-05
26 *145:8 *277:28 0.000385726
27 *242:6 *277:18 4.59257e-05
28 *246:59 *277:18 0
29 *264:29 *277:45 0.000230316
30 *264:38 *277:45 0.000446275
31 *264:53 *277:45 0.000318946
32 *268:73 *277:18 0
33 *268:73 *277:45 0
*RES
1 *1275:Q *277:6 38 
2 *277:6 *277:18 47.69 
3 *277:18 *277:28 46.5064 
4 *277:28 *1028:A1 23 
5 *277:6 *277:45 33.1664 
6 *277:45 *1033:A1 23 
*END

*D_NET *278 0.00135538
*CONN
*I *1296:A I *D sky130_fd_sc_hd__dlygate4sd3_1
*I *1024:A1 I *D sky130_fd_sc_hd__mux2_1
*I *1276:Q O *D sky130_fd_sc_hd__dfrtp_1
*CAP
1 *1296:A 0.00010406
2 *1024:A1 0.000369911
3 *1276:Q 9.01176e-05
4 *278:8 0.000564088
5 *1296:A *341:8 0
6 *1276:RESET_B *1024:A1 0
7 *1276:RESET_B *1296:A 0
8 *136:40 *1024:A1 0
9 *138:12 *1024:A1 0.000227208
10 *138:20 *1024:A1 0
11 *144:10 *1024:A1 0
12 *144:10 *1296:A 0
13 *147:8 *1024:A1 0
*RES
1 *1276:Q *278:8 39.0979 
2 *278:8 *1024:A1 44.8979 
3 *278:8 *1296:A 39.9057 
*END

*D_NET *279 0.00357529
*CONN
*I *1020:A1 I *D sky130_fd_sc_hd__mux2_1
*I *1303:A I *D sky130_fd_sc_hd__dlygate4sd3_1
*I *1277:Q O *D sky130_fd_sc_hd__dfrtp_1
*CAP
1 *1020:A1 0
2 *1303:A 0.000160756
3 *1277:Q 0.000279945
4 *279:25 0.000620113
5 *279:10 0.00106081
6 *279:10 *303:33 0.000171906
7 *279:25 *298:44 0.000104051
8 *279:25 *303:29 2.37074e-05
9 *279:25 *303:33 0.000238454
10 *1020:S *279:25 0.000378149
11 *136:74 *279:10 0.000167443
12 *136:74 *279:25 0.000343932
13 *136:89 *279:25 2.60152e-05
*RES
1 *1277:Q *279:10 42.785 
2 *279:10 *1303:A 40.0507 
3 *279:10 *279:25 29.8521 
4 *279:25 *1020:A1 23 
*END

*D_NET *280 0.00132448
*CONN
*I *1016:A1 I *D sky130_fd_sc_hd__mux2_1
*I *1297:A I *D sky130_fd_sc_hd__dlygate4sd3_1
*I *1278:Q O *D sky130_fd_sc_hd__dfrtp_1
*CAP
1 *1016:A1 0.000172357
2 *1297:A 0
3 *1278:Q 0.000145932
4 *280:10 0.000318289
5 *1016:A1 *298:44 0.000200329
6 *280:10 *298:44 8.16356e-05
7 *89:8 *280:10 8.62876e-05
8 *136:89 *1016:A1 0.00018039
9 *136:89 *280:10 4.07715e-05
10 *240:16 *280:10 9.84851e-05
*RES
1 *1278:Q *280:10 41.3557 
2 *280:10 *1297:A 38 
3 *280:10 *1016:A1 43.4271 
*END

*D_NET *281 0.00323964
*CONN
*I *1011:A1 I *D sky130_fd_sc_hd__mux2_1
*I *1304:A I *D sky130_fd_sc_hd__dlygate4sd3_1
*I *1279:Q O *D sky130_fd_sc_hd__dfrtp_1
*CAP
1 *1011:A1 0
2 *1304:A 0.000107051
3 *1279:Q 0.000110585
4 *281:25 0.000501439
5 *281:10 0.000719076
6 *281:25 *285:22 0.000231443
7 *281:25 *298:44 0
8 *1017:S *281:10 1.94693e-05
9 *1039:A *281:25 0.000127272
10 *91:8 *281:25 0
11 *132:93 *281:10 0.000164282
12 *132:93 *281:25 0.000225275
13 *136:95 *281:25 0
14 *242:14 *1304:A 0.0002263
15 *244:10 *281:10 0.000168754
16 *244:10 *281:25 0.00063869
*RES
1 *1279:Q *281:10 40.8793 
2 *281:10 *1304:A 40.5271 
3 *281:10 *281:25 27.8843 
4 *281:25 *1011:A1 23 
*END

*D_NET *282 0.000415738
*CONN
*I *1006:A I *D sky130_fd_sc_hd__buf_2
*I *1314:X O *D sky130_fd_sc_hd__clkbuf_1
*CAP
1 *1006:A 0
2 *1314:X 0.000147542
3 *282:10 0.000147542
4 *282:10 *300:16 5.67058e-05
5 *282:10 *305:24 6.39478e-05
6 *188:16 *282:10 0
*RES
1 *1314:X *282:10 40.8793 
2 *282:10 *1006:A 38 
*END

*D_NET *283 0.00934076
*CONN
*I *1011:A0 I *D sky130_fd_sc_hd__mux2_1
*I *1315:X O *D sky130_fd_sc_hd__clkbuf_1
*CAP
1 *1011:A0 0
2 *1315:X 0
3 *283:12 0.000886125
4 *283:8 0.00207875
5 *283:4 0.00119262
6 *283:8 *311:16 0.00176009
7 *283:8 *326:14 0.000245289
8 *283:12 *285:22 0.00015156
9 *283:12 *304:8 0.00101719
10 *283:12 *326:14 0.000125404
11 pass_thru_user_delay *283:8 5.67058e-05
12 *1011:S *283:12 9.21523e-05
13 *1318:A *283:8 2.93845e-05
14 *8:9 *283:12 0.00014196
15 *36:8 *283:8 0.000317553
16 *136:103 *283:12 0.00114592
17 *276:23 *283:12 0.000100061
*RES
1 *1315:X *283:4 23 
2 *283:4 *283:8 30.1807 
3 *283:8 *283:12 28.275 
4 *283:12 *1011:A0 23 
*END

*D_NET *284 0.000225966
*CONN
*I *1004:A I *D sky130_fd_sc_hd__buf_2
*I *1316:X O *D sky130_fd_sc_hd__clkbuf_1
*CAP
1 *1004:A 0.000112983
2 *1316:X 0.000112983
*RES
1 *1316:X *1004:A 47.9471 
*END

*D_NET *285 0.00242625
*CONN
*I *1298:A I *D sky130_fd_sc_hd__dlygate4sd3_1
*I *1326:A I *D sky130_fd_sc_hd__clkbuf_4
*I *1280:Q O *D sky130_fd_sc_hd__dfrtp_1
*CAP
1 *1298:A 0
2 *1326:A 0
3 *1280:Q 0.000248289
4 *285:22 0.000610855
5 *285:12 0.000610855
6 *285:10 0.000248289
7 *285:10 *298:44 0.000169674
8 *285:22 *298:44 0
9 *285:22 *306:10 0.000121021
10 odata[3] *285:22 2.45549e-06
11 *1011:S *285:22 3.18142e-05
12 *281:25 *285:22 0.000231443
13 *283:12 *285:22 0.00015156
*RES
1 *1280:Q *285:10 42.3086 
2 *285:10 *285:12 15 
3 *285:12 *285:22 42.5529 
4 *285:22 *1326:A 23 
5 *285:12 *1298:A 23 
*END

*D_NET *286 0.00157338
*CONN
*I *1327:A I *D sky130_fd_sc_hd__clkbuf_4
*I *1169:X O *D sky130_fd_sc_hd__clkbuf_1
*CAP
1 *1327:A 0
2 *1169:X 0.000382471
3 *286:10 0.000382471
4 *286:10 *292:14 0.00073642
5 oaddr[0] *286:10 7.20154e-05
*RES
1 *1169:X *286:10 48.2743 
2 *286:10 *1327:A 38 
*END

*D_NET *287 0.00369201
*CONN
*I *1328:A I *D sky130_fd_sc_hd__clkbuf_4
*I *1170:Y O *D sky130_fd_sc_hd__o21ai_1
*CAP
1 *1328:A 0
2 *1170:Y 0.000222047
3 *287:14 0.000973701
4 *287:8 0.00119575
5 *287:14 *1145:A0 6.07611e-06
6 *287:14 *292:14 0
7 *1117:A2 *287:14 2.18409e-05
8 *1117:B1 *287:14 0
9 *1144:A *287:14 6.57448e-05
10 *1145:A1 *287:8 2.64616e-05
11 *1145:S *287:8 1.59071e-05
12 *1170:A1 *287:8 4.96303e-05
13 *1170:B1 *287:8 1.3523e-05
14 *1179:B1_N *287:14 0
15 *192:56 *287:14 0
16 *192:60 *287:8 1.83618e-05
17 *197:61 *287:14 0.000162422
18 *198:8 *287:14 0.000168754
19 *198:18 *287:14 3.70187e-05
20 *203:56 *287:14 0.000184527
21 *204:8 *287:14 3.36638e-05
22 *227:10 *287:14 0.000164282
23 *257:34 *287:14 0.000138195
24 *257:51 *287:14 0.000136486
25 *258:38 *287:14 4.99753e-06
26 *259:56 *287:14 5.26204e-05
*RES
1 *1170:Y *287:8 41.0036 
2 *287:8 *287:14 36.025 
3 *287:14 *1328:A 23 
*END

*D_NET *288 0.00825025
*CONN
*I *1329:A I *D sky130_fd_sc_hd__clkbuf_4
*I *1172:X O *D sky130_fd_sc_hd__buf_1
*CAP
1 *1329:A 0.000155821
2 *1172:X 0.000202378
3 *288:12 0.00195659
4 *288:10 0.00200315
5 *1329:A *348:10 0
6 *288:12 *298:16 0.000654216
7 *288:12 *298:23 0.000355699
8 *288:12 *298:36 0.00261164
9 *288:12 *348:14 0
10 odata[1] *288:12 2.74987e-05
11 pass_thru_mgmt *288:12 2.5343e-05
12 wrstb *288:12 7.46212e-05
13 *1322:A *1329:A 0
14 *18:10 *288:10 0
15 *18:10 *288:12 0
16 *27:12 *288:12 0
17 *136:74 *288:10 6.21304e-05
18 *136:74 *288:12 3.60304e-05
19 *136:89 *288:10 8.51432e-05
20 *251:122 *288:12 0
*RES
1 *1172:X *288:10 42.5882 
2 *288:10 *288:12 50.17 
3 *288:12 *1329:A 40.5582 
*END

*D_NET *289 0.000295193
*CONN
*I *1330:A I *D sky130_fd_sc_hd__clkbuf_4
*I *1174:X O *D sky130_fd_sc_hd__clkbuf_1
*CAP
1 *1330:A 4.01155e-05
2 *1174:X 4.92713e-05
3 *289:8 8.93869e-05
4 *289:8 *298:44 2.79004e-05
5 *136:89 *289:8 8.85189e-05
*RES
1 *1174:X *289:8 39.2014 
2 *289:8 *1330:A 38.8493 
*END

*D_NET *290 0.000739473
*CONN
*I *1331:A I *D sky130_fd_sc_hd__buf_2
*I *1176:X O *D sky130_fd_sc_hd__clkbuf_1
*CAP
1 *1331:A 0
2 *1176:X 0.000211291
3 *290:10 0.000211291
4 *290:10 *298:44 0.000167535
5 *290:10 *307:21 7.88062e-05
6 *242:14 *290:10 7.05498e-05
*RES
1 *1176:X *290:10 42.3086 
2 *290:10 *1331:A 38 
*END

*D_NET *291 0.000565171
*CONN
*I *1332:A I *D sky130_fd_sc_hd__clkbuf_4
*I *1178:X O *D sky130_fd_sc_hd__clkbuf_1
*CAP
1 *1332:A 6.90833e-05
2 *1178:X 0.000129298
3 *291:8 0.000198381
4 *1332:A *1340:A 0.000143655
5 oaddr[7] *291:8 0
6 *20:10 *1332:A 2.4754e-05
*RES
1 *1178:X *291:8 40.2579 
2 *291:8 *1332:A 40.0507 
*END

*D_NET *292 0.00369417
*CONN
*I *1333:A I *D sky130_fd_sc_hd__clkbuf_4
*I *1179:X O *D sky130_fd_sc_hd__a21bo_1
*CAP
1 *1333:A 0
2 *1179:X 4.96829e-05
3 *292:14 0.00119725
4 *292:8 0.00124694
5 *292:14 *293:12 0.000164943
6 *292:14 *293:23 0
7 *97:10 *292:14 0.000114083
8 *228:8 *292:14 2.79004e-05
9 *229:8 *292:14 8.41012e-05
10 *239:8 *292:14 7.28526e-05
11 *286:10 *292:14 0.00073642
12 *287:14 *292:14 0
*RES
1 *1179:X *292:8 38.6214 
2 *292:8 *292:14 43.71 
3 *292:14 *1333:A 23 
*END

*D_NET *293 0.0284085
*CONN
*I *1072:A1 I *D sky130_fd_sc_hd__mux2_1
*I *1088:A0 I *D sky130_fd_sc_hd__mux2_1
*I *1052:A1 I *D sky130_fd_sc_hd__a32o_1
*I *1058:A1 I *D sky130_fd_sc_hd__a41o_1
*I *1084:A I *D sky130_fd_sc_hd__nand2_1
*I *1281:A I *D sky130_fd_sc_hd__clkbuf_1
*I *1145:A0 I *D sky130_fd_sc_hd__mux2_1
*I *1168:A1 I *D sky130_fd_sc_hd__mux2_1
*I *1317:X O *D sky130_fd_sc_hd__buf_2
*CAP
1 *1072:A1 0.000887189
2 *1088:A0 0
3 *1052:A1 0.000107519
4 *1058:A1 4.14156e-05
5 *1084:A 3.4231e-05
6 *1281:A 3.6497e-05
7 *1145:A0 7.43345e-05
8 *1168:A1 0
9 *1317:X 0.000287315
10 *293:135 0.00139156
11 *293:118 0.0010935
12 *293:101 0.00122421
13 *293:86 0.00187069
14 *293:67 0.0014725
15 *293:54 0.000974612
16 *293:46 0.00107467
17 *293:44 0.00156628
18 *293:38 0.00282404
19 *293:23 0.00165581
20 *293:12 0.000272177
21 *293:6 0.000883208
22 *1052:A1 *305:16 1.4345e-05
23 *1072:A1 *1072:S 3.22879e-05
24 *1072:A1 *362:10 5.67058e-05
25 *1084:A *1082:A1 1.01436e-05
26 *1084:A *357:31 6.25829e-05
27 *1084:A *357:61 1.14154e-05
28 *293:44 *357:25 0
29 *293:44 *360:51 7.91102e-05
30 *293:67 *1084:B 2.64616e-05
31 *293:67 *357:61 1.5769e-05
32 *293:86 *357:25 3.06213e-05
33 *293:86 *357:31 0.000117892
34 *293:118 *1088:A1 2.93845e-05
35 *293:118 *305:16 9.85945e-05
36 *293:135 *1088:A1 2.18409e-05
37 *293:135 *356:10 8.43115e-05
38 *1058:A2 *1058:A1 1.21972e-05
39 *1058:B1 *1058:A1 5.3304e-05
40 *1058:B1 *293:101 9.84851e-05
41 *1088:S *293:118 1.57571e-05
42 *1144:A *1145:A0 0
43 *1146:A0 *293:38 0.000183733
44 *1146:S *293:38 0.000207928
45 *1153:A3 *1052:A1 9.41704e-05
46 *1153:A3 *293:101 3.85446e-05
47 *1153:A3 *293:118 2.87723e-05
48 *1253:CLK *293:135 0.000776468
49 *42:10 *293:44 0.000166522
50 *45:8 *293:44 0.00014411
51 *97:10 *293:6 5.26733e-06
52 *108:6 *1072:A1 0.000312348
53 *121:10 *1052:A1 8.48502e-06
54 *121:10 *293:118 6.17437e-06
55 *131:61 *293:44 0
56 *131:76 *293:44 0
57 *131:84 *293:44 0
58 *133:32 *293:44 0
59 *133:32 *293:54 0.000348706
60 *133:49 *293:44 0.00020395
61 *133:66 *293:44 0.000595257
62 *154:14 *293:135 0.000228714
63 *155:6 *293:86 0.000531784
64 *155:51 *293:86 0.000475672
65 *155:77 *293:86 0.000306176
66 *155:96 *1058:A1 5.3304e-05
67 *155:96 *293:86 0.000166411
68 *155:96 *293:101 8.21688e-05
69 *155:104 *1052:A1 2.93747e-05
70 *155:104 *293:118 0
71 *156:79 *293:118 9.5877e-05
72 *156:93 *293:101 6.00136e-06
73 *157:50 *293:101 5.81577e-05
74 *158:14 *1052:A1 5.50049e-05
75 *158:14 *293:101 0.00015795
76 *164:10 *293:101 0.000132749
77 *165:8 *1084:A 2.70366e-05
78 *165:8 *293:44 0
79 *165:8 *293:86 5.31444e-05
80 *165:22 *1084:A 1.14452e-05
81 *187:6 *1052:A1 4.34876e-05
82 *197:38 *293:44 3.14377e-05
83 *197:44 *293:44 0
84 *197:86 *293:38 0.000100733
85 *197:86 *293:44 0.000108681
86 *201:12 *293:44 0
87 *228:8 *1145:A0 0
88 *234:10 *293:135 6.84987e-06
89 *246:16 *293:44 4.68476e-05
90 *246:66 *293:44 0.000170351
91 *246:75 *293:44 0.000137148
92 *250:36 *293:54 0.000422378
93 *250:99 *1072:A1 5.84008e-05
94 *250:133 *1072:A1 6.30728e-05
95 *251:29 *293:54 0
96 *251:53 *293:44 0.000129412
97 *251:53 *293:54 0
98 *253:12 *293:12 0
99 *253:12 *293:23 0
100 *253:36 *293:12 0
101 *254:58 *293:38 0.000789021
102 *257:14 *293:44 0.000108672
103 *257:88 *293:44 0.000533125
104 *265:10 *293:54 0.000188606
105 *265:26 *1281:A 2.64616e-05
106 *266:74 *293:101 0.000852514
107 *270:92 *293:135 0.000135557
108 *271:76 *293:101 1.40958e-05
109 *271:93 *293:101 3.62323e-05
110 *287:14 *1145:A0 6.07611e-06
111 *292:14 *293:12 0.000164943
112 *292:14 *293:23 0
*RES
1 *1317:X *293:6 26.48 
2 *293:6 *293:12 36.4836 
3 *293:12 *1168:A1 23 
4 *293:6 *293:23 20.0129 
5 *293:23 *1145:A0 39.2014 
6 *293:23 *293:38 49.2021 
7 *293:38 *293:44 38.9429 
8 *293:44 *293:46 15 
9 *293:46 *293:54 36.9364 
10 *293:54 *1281:A 38.6214 
11 *293:46 *293:67 17.0507 
12 *293:67 *1084:A 39.0046 
13 *293:67 *293:86 36.1286 
14 *293:86 *1058:A1 24.0979 
15 *293:86 *293:101 43.34 
16 *293:101 *1052:A1 26.045 
17 *293:101 *293:118 9.36286 
18 *293:118 *1088:A0 23 
19 *293:118 *293:135 44.355 
20 *293:135 *1072:A1 36.6507 
*END

*D_NET *294 0.00392016
*CONN
*I *1109:A0 I *D sky130_fd_sc_hd__mux2_1
*I *1334:A I *D sky130_fd_sc_hd__clkbuf_4
*I *1105:X O *D sky130_fd_sc_hd__buf_1
*CAP
1 *1109:A0 0
2 *1334:A 0
3 *1105:X 0.000212769
4 *294:31 0.000141909
5 *294:14 0.00113755
6 *294:8 0.00149222
7 *294:31 *340:8 8.85189e-05
8 *1103:B_N *294:31 0
9 *1105:A *294:31 0
10 *1113:A *294:14 0.000141052
11 *1113:A *294:31 0
12 *30:10 *294:14 0
13 *104:10 *294:14 0.00011274
14 *243:10 *294:14 0.000527017
15 *265:79 *294:14 6.63801e-05
*RES
1 *1105:X *294:8 26.7389 
2 *294:8 *294:14 42.1254 
3 *294:14 *1334:A 38 
4 *294:8 *294:31 32.7861 
5 *294:31 *1109:A0 23 
*END

*D_NET *295 0.000400047
*CONN
*I *1335:A I *D sky130_fd_sc_hd__clkbuf_4
*I *1281:X O *D sky130_fd_sc_hd__clkbuf_1
*CAP
1 *1335:A 0
2 *1281:X 6.60149e-05
3 *295:8 6.60149e-05
4 *295:8 *1305:A 0.000138727
5 *73:10 *295:8 8.85189e-05
6 *250:36 *295:8 4.07715e-05
*RES
1 *1281:X *295:8 40.2579 
2 *295:8 *1335:A 38 
*END

*D_NET *296 0.00468692
*CONN
*I *1336:A I *D sky130_fd_sc_hd__clkbuf_4
*I *1072:A0 I *D sky130_fd_sc_hd__mux2_1
*I *1070:A1 I *D sky130_fd_sc_hd__mux2_1
*I *1257:Q O *D sky130_fd_sc_hd__dfrtp_1
*CAP
1 *1336:A 0
2 *1072:A0 0.000262312
3 *1070:A1 0.000421651
4 *1257:Q 0
5 *296:40 0.000270413
6 *296:8 0.00113329
7 *296:4 0.000719739
8 *1070:A1 *1068:A1 0.000171296
9 *1070:A1 *1070:A0 1.24376e-05
10 *1070:A1 *1072:S 9.35856e-05
11 *1070:A1 *313:23 5.3656e-05
12 *1072:A0 *1072:S 6.41109e-05
13 *296:40 *298:36 0.000657377
14 *296:40 *337:10 0.000657377
15 *1257:CLK *1070:A1 0
16 *1257:D *296:8 2.93845e-05
17 *113:10 *1072:A0 8.4047e-05
18 *250:133 *1072:A0 5.6246e-05
*RES
1 *1257:Q *296:4 23 
2 *296:4 *296:8 22.7679 
3 *296:8 *1070:A1 47.0314 
4 *296:8 *1072:A0 42.5364 
5 *296:4 *296:40 40.1707 
6 *296:40 *1336:A 23 
*END

*D_NET *297 0.00361415
*CONN
*I *1068:A1 I *D sky130_fd_sc_hd__mux2_1
*I *1070:A0 I *D sky130_fd_sc_hd__mux2_1
*I *1337:A I *D sky130_fd_sc_hd__clkbuf_4
*I *1258:Q O *D sky130_fd_sc_hd__dfrtp_1
*CAP
1 *1068:A1 0.000114089
2 *1070:A0 4.80102e-05
3 *1337:A 0
4 *1258:Q 0.000153084
5 *297:21 0.000362847
6 *297:12 0.000665186
7 *297:8 0.00101902
8 *1068:A1 *313:30 0.000228626
9 *1068:A1 *313:41 8.88657e-05
10 *297:12 *299:26 5.61414e-05
11 *297:12 *313:41 0
12 *297:21 *313:41 0
13 *1070:A1 *1068:A1 0.000171296
14 *1070:A1 *1070:A0 1.24376e-05
15 *1215:A *297:12 0
16 *1257:CLK *297:21 0.000139647
17 *1261:CLK *297:12 0
18 *116:14 *297:12 0
19 *117:10 *297:12 7.03766e-05
20 *169:8 *297:12 0
21 *251:114 *297:8 0.000209039
22 *266:120 *297:12 0.000141888
23 *266:120 *297:21 0.000133595
24 *266:124 *297:12 0
*RES
1 *1258:Q *297:8 40.5271 
2 *297:8 *297:12 28.5264 
3 *297:12 *1337:A 23 
4 *297:8 *297:21 18.6664 
5 *297:21 *1070:A0 23.6214 
6 *297:21 *1068:A1 26.9564 
*END

*D_NET *298 0.0160289
*CONN
*I *1338:A I *D sky130_fd_sc_hd__clkbuf_4
*I *1068:A0 I *D sky130_fd_sc_hd__mux2_1
*I *1066:A1 I *D sky130_fd_sc_hd__mux2_1
*I *1259:Q O *D sky130_fd_sc_hd__dfrtp_1
*CAP
1 *1338:A 0
2 *1068:A0 0.000429484
3 *1066:A1 0
4 *1259:Q 0.000102641
5 *298:44 0.00134045
6 *298:40 0.00149084
7 *298:36 0.000881124
8 *298:23 0.00127521
9 *298:16 0.000656123
10 *298:8 0.000873766
11 *1068:A0 *313:41 5.56279e-05
12 *298:16 *337:8 5.67058e-05
13 *298:16 *337:10 0.000333228
14 *298:23 *337:10 0.000175346
15 *298:36 *337:10 0.000329158
16 *298:40 *303:29 5.3304e-05
17 *298:44 *303:33 3.47781e-05
18 *298:44 *306:10 3.56537e-05
19 *298:44 *307:21 0.000221855
20 oaddr[4] *298:44 2.33476e-05
21 *1016:A1 *298:44 0.000200329
22 *1039:A *298:44 0
23 *1324:A *298:44 0
24 *10:9 *298:16 5.67058e-05
25 *71:10 *298:16 5.50049e-05
26 *89:8 *298:44 2.26385e-05
27 *91:8 *298:44 0
28 *132:93 *298:44 0
29 *134:95 *298:44 0.000608421
30 *136:55 *298:36 0.000490604
31 *136:74 *298:36 0.000808364
32 *136:89 *298:44 0
33 *140:10 *298:44 0.000382574
34 *170:10 *1068:A0 5.41288e-05
35 *250:152 *298:16 5.50049e-05
36 *251:122 *298:16 9.67842e-05
37 *277:28 *298:44 0
38 *279:25 *298:44 0.000104051
39 *280:10 *298:44 8.16356e-05
40 *281:25 *298:44 0
41 *285:10 *298:44 0.000169674
42 *285:22 *298:44 0
43 *288:12 *298:16 0.000654216
44 *288:12 *298:23 0.000355699
45 *288:12 *298:36 0.00261164
46 *289:8 *298:44 2.79004e-05
47 *290:10 *298:44 0.000167535
48 *296:40 *298:36 0.000657377
*RES
1 *1259:Q *298:8 39.0979 
2 *298:8 *298:16 31.385 
3 *298:16 *1066:A1 23 
4 *298:8 *298:23 4.72286 
5 *298:23 *1068:A0 45.2914 
6 *298:23 *298:36 49.3029 
7 *298:36 *298:40 17.0507 
8 *298:40 *298:44 48.2464 
9 *298:44 *1338:A 23 
*END

*D_NET *299 0.00357201
*CONN
*I *1339:A I *D sky130_fd_sc_hd__buf_2
*I *1066:A0 I *D sky130_fd_sc_hd__mux2_1
*I *1064:A1 I *D sky130_fd_sc_hd__mux2_1
*I *1260:Q O *D sky130_fd_sc_hd__dfrtp_1
*CAP
1 *1339:A 7.84428e-05
2 *1066:A0 0
3 *1064:A1 0
4 *1260:Q 0
5 *299:26 0.000433338
6 *299:12 0.00112667
7 *299:4 0.000771776
8 *299:12 *313:41 6.48263e-05
9 *299:26 *1064:S 0.000401899
10 *1261:CLK *299:26 5.50106e-05
11 *25:8 *299:26 3.53115e-05
12 *116:14 *299:12 0.00013339
13 *116:14 *299:26 2.70366e-05
14 *117:10 *299:26 0.000274078
15 *169:8 *299:26 0.000114092
16 *297:12 *299:26 5.61414e-05
*RES
1 *1260:Q *299:4 23 
2 *299:4 *299:12 39.1971 
3 *299:12 *299:26 41.165 
4 *299:26 *1064:A1 23 
5 *299:12 *1066:A0 23 
6 *299:4 *1339:A 24.4707 
*END

*D_NET *300 0.00964322
*CONN
*I *1064:A0 I *D sky130_fd_sc_hd__mux2_1
*I *1062:A1 I *D sky130_fd_sc_hd__mux2_1
*I *1340:A I *D sky130_fd_sc_hd__clkbuf_4
*I *1261:Q O *D sky130_fd_sc_hd__dfrtp_1
*CAP
1 *1064:A0 0.000434917
2 *1062:A1 0
3 *1340:A 0.000520869
4 *1261:Q 9.91122e-05
5 *300:16 0.00286972
6 *300:12 0.00283067
7 *300:8 0.000146013
8 *1340:A *350:6 3.22879e-05
9 *300:16 *1305:A 5.50049e-05
10 *300:16 *1344:A 0.000377865
11 *300:16 *1349:A 7.88926e-05
12 *300:16 *350:6 0.000141246
13 *1065:A *1064:A0 0.000151483
14 *1065:A *300:12 3.22465e-05
15 *1210:B *300:16 0.0008433
16 *1216:B *300:16 2.32004e-05
17 *1332:A *1340:A 0.000143655
18 *20:10 *1340:A 0.000187129
19 *25:8 *1064:A0 0.00014196
20 *67:10 *300:16 0.000143655
21 *73:10 *300:16 0.000228001
22 *117:10 *1064:A0 2.38387e-06
23 *167:10 *1340:A 3.22879e-05
24 *250:36 *300:16 7.06229e-05
25 *282:10 *300:16 5.67058e-05
*RES
1 *1261:Q *300:8 39.5536 
2 *300:8 *300:12 16.0979 
3 *300:12 *300:16 48.285 
4 *300:16 *1340:A 34.6207 
5 *300:16 *1062:A1 23 
6 *300:12 *1064:A0 29.9393 
*END

*D_NET *301 0.00229158
*CONN
*I *1341:A I *D sky130_fd_sc_hd__clkbuf_4
*I *1060:A1 I *D sky130_fd_sc_hd__mux2_1
*I *1305:A I *D sky130_fd_sc_hd__dlygate4sd3_1
*I *1262:Q O *D sky130_fd_sc_hd__dfrtp_1
*CAP
1 *1341:A 0
2 *1060:A1 0.000107346
3 *1305:A 0.000122222
4 *1262:Q 0
5 *301:23 0.000353343
6 *301:6 0.000368219
7 *1060:A1 *1060:A0 1.76557e-05
8 *29:8 *1060:A1 0.000184527
9 *73:10 *1305:A 1.47563e-05
10 *73:10 *301:23 4.7869e-05
11 *133:32 *301:23 1.01436e-05
12 *165:28 *1060:A1 0.000270682
13 *165:28 *301:23 0.000319689
14 *248:20 *1060:A1 2.32004e-05
15 *248:20 *301:23 2.18409e-05
16 *249:29 *1060:A1 6.17437e-06
17 *249:29 *301:23 0.000189104
18 *250:36 *301:23 4.10714e-05
19 *295:8 *1305:A 0.000138727
20 *300:16 *1305:A 5.50049e-05
*RES
1 *1262:Q *301:6 38 
2 *301:6 *1305:A 40.8793 
3 *301:6 *301:23 22.2707 
4 *301:23 *1060:A1 26.9564 
5 *301:23 *1341:A 23 
*END

*D_NET *302 0.00270292
*CONN
*I *1342:A I *D sky130_fd_sc_hd__clkbuf_4
*I *1300:A I *D sky130_fd_sc_hd__dlygate4sd3_1
*I *1263:Q O *D sky130_fd_sc_hd__dfrtp_1
*CAP
1 *1342:A 0
2 *1300:A 0.000168503
3 *1263:Q 0
4 *302:23 0.000918776
5 *302:6 0.00108728
6 *1263:RESET_B *1300:A 0.000313255
7 *111:10 *302:23 4.85876e-05
8 *248:20 *1300:A 6.38845e-05
9 *248:20 *302:23 0.000102638
10 *249:29 *1300:A 0
11 *249:29 *302:23 0
*RES
1 *1263:Q *302:6 38 
2 *302:6 *1300:A 42.3293 
3 *302:6 *302:23 30.515 
4 *302:23 *1342:A 23 
*END

*D_NET *303 0.00893046
*CONN
*I *1343:A I *D sky130_fd_sc_hd__buf_2
*I *1307:A I *D sky130_fd_sc_hd__dlygate4sd3_1
*I *1237:Q O *D sky130_fd_sc_hd__dfrtp_1
*CAP
1 *1343:A 0.000111864
2 *1307:A 0
3 *1237:Q 0.000168413
4 *303:33 0.00113356
5 *303:29 0.00196234
6 *303:14 0.000216219
7 *303:6 0.00132528
8 *303:6 *1020:A0 0.000123934
9 *303:29 *1020:A0 0.000218503
10 *303:33 *337:10 0.00142558
11 *303:33 *347:8 0.00030457
12 *303:33 *348:14 0
13 *1020:S *303:29 0.000234504
14 *88:10 *303:33 0.000108559
15 *134:60 *303:14 0
16 *134:76 *303:29 0.00010018
17 *134:95 *303:29 8.81732e-05
18 *136:40 *303:33 0
19 *136:55 *303:33 7.02841e-05
20 *136:74 *303:33 0.00020902
21 *138:20 *303:33 0
22 *138:26 *303:33 0.000404996
23 *144:10 *303:33 8.82524e-05
24 *263:47 *303:14 0
25 *277:28 *303:29 0.000114074
26 *277:28 *303:33 0
27 *279:10 *303:33 0.000171906
28 *279:25 *303:29 2.37074e-05
29 *279:25 *303:33 0.000238454
30 *298:40 *303:29 5.3304e-05
31 *298:44 *303:33 3.47781e-05
*RES
1 *1237:Q *303:6 25.5271 
2 *303:6 *303:14 33.8114 
3 *303:14 *1307:A 23 
4 *303:6 *303:29 44.7071 
5 *303:29 *303:33 46.4857 
6 *303:33 *1343:A 39.5743 
*END

*D_NET *304 0.00273432
*CONN
*I *1041:B2 I *D sky130_fd_sc_hd__a22o_1
*I *1318:X O *D sky130_fd_sc_hd__clkbuf_1
*CAP
1 *1041:B2 0.000378038
2 *1318:X 0.000453017
3 *304:8 0.000831055
4 *1041:B2 *315:8 2.5415e-05
5 *1041:B2 *339:8 0
6 *1032:S *1041:B2 0
7 *1036:S *1041:B2 0
8 *1037:S *1041:B2 0
9 *8:9 *1041:B2 2.96051e-05
10 *136:103 *1041:B2 0
11 *136:120 *1041:B2 0
12 *138:63 *1041:B2 0
13 *276:23 *1041:B2 0
14 *283:12 *304:8 0.00101719
*RES
1 *1318:X *304:8 49.1029 
2 *304:8 *1041:B2 44.4836 
*END

*D_NET *305 0.0101816
*CONN
*I *1180:B I *D sky130_fd_sc_hd__or2_1
*I *1153:B1 I *D sky130_fd_sc_hd__o31a_1
*I *1344:A I *D sky130_fd_sc_hd__clkbuf_4
*I *1238:Q O *D sky130_fd_sc_hd__dfrtp_1
*CAP
1 *1180:B 0
2 *1153:B1 0
3 *1344:A 0.000543458
4 *1238:Q 0
5 *305:48 0.000298726
6 *305:24 0.00231624
7 *305:18 0.00177278
8 *305:16 0.000657357
9 *305:4 0.000956083
10 *305:16 *338:8 0
11 *305:16 *351:10 3.83059e-05
12 *305:16 *354:59 0
13 *305:16 *359:87 0.000191157
14 *305:24 *351:10 0
15 *305:48 *354:59 0.000348475
16 *305:48 *359:119 0
17 *1052:A1 *305:16 1.4345e-05
18 *1153:A2 *305:16 5.3304e-05
19 *1153:A2 *305:24 2.02999e-05
20 *1153:A3 *305:16 5.3304e-05
21 *1251:CLK *305:24 0
22 *1314:A *305:24 0
23 *49:10 *305:16 5.94125e-05
24 *75:10 *305:24 6.53445e-05
25 *106:10 *305:24 0.00012077
26 *121:10 *305:16 0
27 *133:8 *305:24 0
28 *156:79 *305:16 9.5877e-05
29 *156:79 *305:24 0.000184825
30 *156:93 *305:24 0
31 *156:95 *305:24 0
32 *156:108 *305:24 0
33 *187:6 *305:16 7.94511e-05
34 *187:14 *305:24 0
35 *188:16 *305:24 0
36 *233:8 *305:16 0.000140949
37 *246:24 *305:48 0
38 *250:91 *305:24 0.000165504
39 *261:42 *305:16 0
40 *266:12 *305:24 0
41 *266:74 *305:24 0.00104693
42 *268:16 *305:16 0.000140935
43 *268:16 *305:48 0.000177104
44 *270:24 *305:24 0.000100293
45 *270:32 *305:24 0
46 *282:10 *305:24 6.39478e-05
47 *293:118 *305:16 9.85945e-05
48 *300:16 *1344:A 0.000377865
*RES
1 *1238:Q *305:4 23 
2 *305:4 *305:16 44.3757 
3 *305:16 *305:18 15 
4 *305:18 *305:24 37.8864 
5 *305:24 *1344:A 49.1236 
6 *305:16 *1153:B1 23 
7 *305:4 *305:48 36.7736 
8 *305:48 *1180:B 23 
*END

*D_NET *306 0.00105224
*CONN
*I *1345:A I *D sky130_fd_sc_hd__clkbuf_4
*I *1181:X O *D sky130_fd_sc_hd__clkbuf_1
*CAP
1 *1345:A 0
2 *1181:X 0.000427439
3 *306:10 0.000427439
4 *306:10 *343:6 4.06849e-05
5 *285:22 *306:10 0.000121021
6 *298:44 *306:10 3.56537e-05
*RES
1 *1181:X *306:10 44.4629 
2 *306:10 *1345:A 38 
*END

*D_NET *307 0.00362259
*CONN
*I *1346:A I *D sky130_fd_sc_hd__clkbuf_4
*I *1290:A I *D sky130_fd_sc_hd__dlygate4sd3_1
*I *1239:Q O *D sky130_fd_sc_hd__dfrtp_1
*CAP
1 *1346:A 0
2 *1290:A 2.34823e-05
3 *1239:Q 0.000269628
4 *307:21 0.00104816
5 *307:8 0.00134127
6 *307:8 *325:10 1.05235e-05
7 *307:21 *1016:A0 9.84794e-05
8 *307:21 *349:8 8.62876e-05
9 *307:21 *353:8 4.08641e-05
10 *136:95 *307:21 0.000303049
11 *140:10 *307:21 0.00010018
12 *290:10 *307:21 7.88062e-05
13 *298:44 *307:21 0.000221855
*RES
1 *1239:Q *307:8 27.4536 
2 *307:8 *1290:A 23.4971 
3 *307:8 *307:21 37.6407 
4 *307:21 *1346:A 38 
*END

*D_NET *308 0.00322152
*CONN
*I *1347:A I *D sky130_fd_sc_hd__clkbuf_4
*I *1182:B I *D sky130_fd_sc_hd__or2_1
*I *1149:A1 I *D sky130_fd_sc_hd__mux2_1
*I *1240:Q O *D sky130_fd_sc_hd__dfrtp_1
*CAP
1 *1347:A 0.000256479
2 *1182:B 0
3 *1149:A1 0.000116427
4 *1240:Q 0.000358915
5 *308:12 0.000235777
6 *308:8 0.000734745
7 *1149:A1 *1149:A0 0.0002263
8 *1347:A *311:12 0.000123418
9 *1347:A *311:16 0.000375551
10 *1347:A *326:14 0.000669396
11 *308:12 *311:12 9.39056e-05
12 *1240:CLK *308:12 0
13 *1240:RESET_B *308:8 1.19087e-05
14 *230:23 *308:12 1.86973e-05
*RES
1 *1240:Q *308:8 42.4329 
2 *308:8 *308:12 17.61 
3 *308:12 *1149:A1 25.5271 
4 *308:12 *1182:B 23 
5 *308:8 *1347:A 48.6057 
*END

*D_NET *309 0.000304316
*CONN
*I *1348:A I *D sky130_fd_sc_hd__clkbuf_4
*I *1183:X O *D sky130_fd_sc_hd__clkbuf_1
*CAP
1 *1348:A 0
2 *1183:X 0.000152158
3 *309:10 0.000152158
4 *309:10 *311:12 0
*RES
1 *1183:X *309:10 40.175 
2 *309:10 *1348:A 38 
*END

*D_NET *310 0.00773798
*CONN
*I *1293:A I *D sky130_fd_sc_hd__dlygate4sd3_1
*I *1156:A2 I *D sky130_fd_sc_hd__o211a_1
*I *1349:A I *D sky130_fd_sc_hd__clkbuf_4
*I *1236:Q O *D sky130_fd_sc_hd__dfrtp_1
*CAP
1 *1293:A 6.84672e-05
2 *1156:A2 3.55655e-05
3 *1349:A 6.7315e-05
4 *1236:Q 0.000261772
5 *310:20 0.00178736
6 *310:12 0.00217516
7 *310:10 0.000749789
8 *1156:A2 *356:27 5.90675e-06
9 *1293:A *359:87 6.70017e-05
10 *310:10 *354:59 0.000155059
11 *310:12 *354:59 0.000406871
12 *310:12 *356:27 6.6869e-05
13 *310:20 *354:10 4.842e-05
14 *1157:A2 *310:12 3.56537e-05
15 *1253:CLK *310:20 0
16 *61:10 *310:20 0
17 *62:8 *310:20 6.95768e-05
18 *136:10 *310:20 9.34636e-05
19 *136:29 *310:20 9.96103e-05
20 *156:10 *310:20 0.000523797
21 *159:71 *1156:A2 1.14154e-05
22 *159:77 *310:12 5.55911e-05
23 *159:77 *310:20 0.000301419
24 *181:23 *310:20 4.52078e-05
25 *183:8 *310:12 0
26 *183:8 *310:20 0
27 *184:8 *310:12 0
28 *187:14 *310:20 0
29 *193:33 *1293:A 0.000140259
30 *193:50 *310:10 5.01247e-05
31 *193:50 *310:12 6.7177e-06
32 *234:10 *310:12 5.40866e-05
33 *248:41 *310:20 1.86859e-05
34 *248:65 *310:20 0.000177914
35 *266:53 *310:20 0
36 *268:16 *310:10 7.99999e-05
37 *271:10 *310:20 0
38 *271:47 *310:20 0
39 *300:16 *1349:A 7.88926e-05
*RES
1 *1236:Q *310:10 42.785 
2 *310:10 *310:12 9.30071 
3 *310:12 *310:20 49.0129 
4 *310:20 *1349:A 24.5743 
5 *310:12 *1156:A2 38.8493 
6 *310:10 *1293:A 40.0507 
*END

*D_NET *311 0.00762139
*CONN
*I *1350:A I *D sky130_fd_sc_hd__buf_6
*I *1265:Q O *D sky130_fd_sc_hd__dfstp_1
*CAP
1 *1350:A 0
2 *1265:Q 0.000452163
3 *311:16 0.000888706
4 *311:12 0.00159722
5 *311:8 0.00116068
6 *311:16 *326:10 0.000618471
7 *311:16 *326:14 0.000401364
8 *1315:A *311:16 5.50106e-05
9 *1347:A *311:12 0.000123418
10 *1347:A *311:16 0.000375551
11 *9:11 *311:16 5.50106e-05
12 *51:8 *311:12 0
13 *230:23 *311:12 0
14 *247:91 *311:12 0
15 *256:6 *311:8 3.97968e-05
16 *283:8 *311:16 0.00176009
17 *308:12 *311:12 9.39056e-05
18 *309:10 *311:12 0
*RES
1 *1265:Q *311:8 43.6239 
2 *311:8 *311:12 28.5264 
3 *311:12 *311:16 33.5157 
4 *311:16 *1350:A 23 
*END

*D_NET *312 0.00193653
*CONN
*I *1351:A I *D sky130_fd_sc_hd__buf_2
*I *1313:A I *D sky130_fd_sc_hd__dlygate4sd3_1
*I *1267:Q O *D sky130_fd_sc_hd__dfrtp_1
*CAP
1 *1351:A 0.000369225
2 *1313:A 0
3 *1267:Q 8.2643e-05
4 *312:10 0.000369225
5 *312:8 8.2643e-05
6 *1351:A *321:10 1.70513e-05
7 *312:8 *321:10 3.98887e-05
8 *1025:S *1351:A 4.41403e-05
9 *1232:A *1351:A 0.000144501
10 *1276:RESET_B *312:8 0.000168754
11 *138:32 *1351:A 0.000618461
*RES
1 *1267:Q *312:8 40.2579 
2 *312:8 *312:10 15 
3 *312:10 *1313:A 23 
4 *312:10 *1351:A 32.3629 
*END

*D_NET *313 0.0118915
*CONN
*I *1072:S I *D sky130_fd_sc_hd__mux2_1
*I *1066:S I *D sky130_fd_sc_hd__mux2_1
*I *1064:S I *D sky130_fd_sc_hd__mux2_1
*I *1068:S I *D sky130_fd_sc_hd__mux2_1
*I *1070:S I *D sky130_fd_sc_hd__mux2_1
*I *1075:B1 I *D sky130_fd_sc_hd__a32o_1
*I *1325:X O *D sky130_fd_sc_hd__buf_2
*CAP
1 *1072:S 0.000263988
2 *1066:S 0
3 *1064:S 0.000435655
4 *1068:S 0
5 *1070:S 0
6 *1075:B1 3.9878e-05
7 *1325:X 0.00015299
8 *313:41 0.00130843
9 *313:30 0.000975996
10 *313:23 0.000180069
11 *313:19 0.00178483
12 *313:6 0.00163686
13 *1064:S *348:10 0
14 *1064:S *348:14 0
15 *313:41 *348:14 0
16 *1009:A *313:19 5.3304e-05
17 *1047:A *313:19 0.000108672
18 *1067:A *1064:S 5.50106e-05
19 *1068:A0 *313:41 5.56279e-05
20 *1068:A1 *313:30 0.000228626
21 *1068:A1 *313:41 8.88657e-05
22 *1070:A1 *1072:S 9.35856e-05
23 *1070:A1 *313:23 5.3656e-05
24 *1072:A0 *1072:S 6.41109e-05
25 *1072:A1 *1072:S 3.22879e-05
26 *1075:A2 *1075:B1 2.55176e-05
27 *1075:A2 *313:6 3.53115e-05
28 *1075:A2 *313:19 0.000452236
29 *1075:A3 *1075:B1 4.00259e-06
30 *1075:A3 *313:6 1.32939e-05
31 *1257:CLK *1072:S 0.000122304
32 *1257:CLK *313:23 8.51329e-05
33 *1261:CLK *313:41 0
34 *25:8 *1064:S 5.70419e-05
35 *71:10 *313:41 0
36 *115:8 *313:41 0
37 *116:14 *1064:S 5.69371e-05
38 *116:14 *313:41 8.16757e-06
39 *156:128 *313:19 0.000304686
40 *161:93 *313:19 4.96717e-05
41 *162:18 *313:19 0.000125544
42 *162:30 *313:19 0.000185371
43 *169:8 *1064:S 0
44 *170:10 *313:41 0
45 *174:6 *313:6 8.34394e-05
46 *174:8 *313:6 0.000265466
47 *250:103 *1072:S 0
48 *250:133 *1072:S 6.78519e-05
49 *250:146 *313:41 0
50 *250:152 *313:41 0
51 *251:80 *1072:S 0
52 *266:124 *313:41 0
53 *269:16 *313:19 5.50049e-05
54 *270:12 *313:19 0.000267167
55 *270:14 *313:19 5.50106e-05
56 *270:24 *313:19 0.000872674
57 *273:38 *313:6 5.3304e-05
58 *273:72 *313:6 0.000525411
59 *273:72 *313:19 4.17736e-05
60 *297:12 *313:41 0
61 *297:21 *313:41 0
62 *299:12 *313:41 6.48263e-05
63 *299:26 *1064:S 0.000401899
*RES
1 *1325:X *313:6 29.3386 
2 *313:6 *1075:B1 24.1289 
3 *313:6 *313:19 48.495 
4 *313:19 *313:23 17.2579 
5 *313:23 *1070:S 23 
6 *313:23 *313:30 2.52714 
7 *313:30 *1068:S 23 
8 *313:30 *313:41 31.6336 
9 *313:41 *1064:S 48.3779 
10 *313:41 *1066:S 38 
11 *313:19 *1072:S 45.3743 
*END

*D_NET *314 0.000291709
*CONN
*I *1265:CLK I *D sky130_fd_sc_hd__dfstp_1
*I *1220:Y O *D sky130_fd_sc_hd__inv_2
*CAP
1 *1265:CLK 4.01155e-05
2 *1220:Y 6.14794e-05
3 *314:8 0.000101595
4 *1167:B1 *314:8 0
5 *264:12 *314:8 8.85189e-05
*RES
1 *1220:Y *314:8 39.2014 
2 *314:8 *1265:CLK 38.8493 
*END

*D_NET *315 0.000426604
*CONN
*I *1036:A0 I *D sky130_fd_sc_hd__mux2_1
*I *1319:X O *D sky130_fd_sc_hd__clkbuf_1
*CAP
1 *1036:A0 0.000119053
2 *1319:X 5.7591e-05
3 *315:8 0.000176644
4 *1036:A1 *1036:A0 5.14746e-06
5 *1036:S *1036:A0 1.73399e-05
6 *1041:B2 *315:8 2.5415e-05
7 *136:103 *315:8 2.5415e-05
*RES
1 *1319:X *315:8 39.2014 
2 *315:8 *1036:A0 39.5743 
*END

*D_NET *316 0.000179659
*CONN
*I *1267:CLK I *D sky130_fd_sc_hd__dfrtp_1
*I *1222:Y O *D sky130_fd_sc_hd__inv_2
*CAP
1 *1267:CLK 7.22348e-05
2 *1222:Y 7.22348e-05
3 *1222:A *1267:CLK 3.51895e-05
*RES
1 *1222:Y *1267:CLK 47.5743 
*END

*D_NET *317 0.000504472
*CONN
*I *1273:CLK I *D sky130_fd_sc_hd__dfrtp_1
*I *1228:Y O *D sky130_fd_sc_hd__inv_2
*CAP
1 *1273:CLK 0.000110006
2 *1228:Y 4.11681e-05
3 *317:8 0.000151174
4 *1036:A1 *1273:CLK 2.13733e-05
5 *1036:S *1273:CLK 3.7122e-06
6 *136:103 *317:8 8.85189e-05
7 *264:46 *317:8 8.85189e-05
*RES
1 *1228:Y *317:8 39.2014 
2 *317:8 *1273:CLK 40.0921 
*END

*D_NET *318 0.000151167
*CONN
*I *1274:CLK I *D sky130_fd_sc_hd__dfrtp_1
*I *1229:Y O *D sky130_fd_sc_hd__inv_2
*CAP
1 *1274:CLK 7.55833e-05
2 *1229:Y 7.55833e-05
*RES
1 *1229:Y *1274:CLK 47.0979 
*END

*D_NET *319 0.000509998
*CONN
*I *1275:CLK I *D sky130_fd_sc_hd__dfrtp_1
*I *1230:Y O *D sky130_fd_sc_hd__inv_2
*CAP
1 *1275:CLK 0.000124274
2 *1230:Y 6.57507e-05
3 *319:8 0.000190025
4 *1167:B1 *319:8 0
5 *1275:D *1275:CLK 5.37348e-06
6 *125:10 *319:8 8.62876e-05
7 *134:35 *1275:CLK 3.82879e-05
*RES
1 *1230:Y *319:8 39.2014 
2 *319:8 *1275:CLK 40.7136 
*END

*D_NET *320 0.000374141
*CONN
*I *1276:CLK I *D sky130_fd_sc_hd__dfrtp_1
*I *1231:Y O *D sky130_fd_sc_hd__inv_2
*CAP
1 *1276:CLK 0.00010528
2 *1231:Y 8.17907e-05
3 *320:8 0.000187071
4 *320:8 *362:20 0
5 *1276:RESET_B *320:8 0
*RES
1 *1231:Y *320:8 39.2014 
2 *320:8 *1276:CLK 40.0921 
*END

*D_NET *321 0.000425117
*CONN
*I *1277:CLK I *D sky130_fd_sc_hd__dfrtp_1
*I *1232:Y O *D sky130_fd_sc_hd__inv_2
*CAP
1 *1277:CLK 0
2 *1232:Y 0.000157747
3 *321:10 0.000157747
4 *1232:A *321:10 3.22051e-05
5 *1276:RESET_B *321:10 2.04774e-05
6 *1351:A *321:10 1.70513e-05
7 *312:8 *321:10 3.98887e-05
*RES
1 *1232:Y *321:10 41.0036 
2 *321:10 *1277:CLK 38 
*END

*D_NET *322 0.000168992
*CONN
*I *1278:CLK I *D sky130_fd_sc_hd__dfrtp_1
*I *1233:Y O *D sky130_fd_sc_hd__inv_2
*CAP
1 *1278:CLK 6.86625e-05
2 *1233:Y 6.86625e-05
3 *240:16 *1278:CLK 3.16665e-05
*RES
1 *1233:Y *1278:CLK 47.0979 
*END

*D_NET *323 0.000387206
*CONN
*I *1279:CLK I *D sky130_fd_sc_hd__dfrtp_1
*I *1234:Y O *D sky130_fd_sc_hd__inv_2
*CAP
1 *1279:CLK 0.00010528
2 *1234:Y 6.66531e-05
3 *323:8 0.000171933
4 *134:48 *1279:CLK 0
5 *242:14 *323:8 4.334e-05
6 *252:12 *323:8 0
*RES
1 *1234:Y *323:8 39.2014 
2 *323:8 *1279:CLK 40.0921 
*END

*D_NET *324 0.000148519
*CONN
*I *1280:CLK I *D sky130_fd_sc_hd__dfrtp_1
*I *1235:Y O *D sky130_fd_sc_hd__inv_2
*CAP
1 *1280:CLK 4.7211e-05
2 *1235:Y 4.7211e-05
3 *1039:A *1280:CLK 5.40971e-05
*RES
1 *1235:Y *1280:CLK 47.0979 
*END

*D_NET *325 0.0020264
*CONN
*I *1152:B1 I *D sky130_fd_sc_hd__a31o_1
*I *1290:X O *D sky130_fd_sc_hd__dlygate4sd3_1
*CAP
1 *1152:B1 0.00049464
2 *1290:X 0.000126564
3 *325:10 0.000621204
4 *1152:B1 *1151:A 0.000123754
5 *95:10 *1152:B1 2.32101e-05
6 *138:47 *325:10 0
7 *193:62 *1152:B1 5.50049e-05
8 *232:8 *1152:B1 0.000485221
9 *252:12 *325:10 8.62783e-05
10 *307:8 *325:10 1.05235e-05
*RES
1 *1290:X *325:10 39.8229 
2 *325:10 *1152:B1 48.9993 
*END

*D_NET *326 0.00870524
*CONN
*I *1032:A0 I *D sky130_fd_sc_hd__mux2_1
*I *1320:X O *D sky130_fd_sc_hd__clkbuf_1
*CAP
1 *1032:A0 0.000579551
2 *1320:X 0.000575897
3 *326:14 0.00263572
4 *326:10 0.00263207
5 *1032:S *1032:A0 0.000102389
6 *1315:A *326:10 5.67058e-05
7 *1318:A *326:14 3.22879e-05
8 *1347:A *326:14 0.000669396
9 *138:63 *1032:A0 0
10 *276:8 *1032:A0 3.06971e-05
11 *276:23 *1032:A0 0
12 *283:8 *326:14 0.000245289
13 *283:12 *326:14 0.000125404
14 *311:16 *326:10 0.000618471
15 *311:16 *326:14 0.000401364
*RES
1 *1320:X *326:10 36.5264 
2 *326:10 *326:14 47.5421 
3 *326:14 *1032:A0 47.4043 
*END

*D_NET *327 0.00064384
*CONN
*I *1239:D I *D sky130_fd_sc_hd__dfrtp_1
*I *1301:X O *D sky130_fd_sc_hd__dlygate4sd3_1
*CAP
1 *1239:D 0.000205123
2 *1301:X 9.07631e-05
3 *327:8 0.000295887
4 *1239:CLK *1239:D 6.17437e-06
5 *134:60 *327:8 0
6 *246:59 *327:8 4.58924e-05
*RES
1 *1301:X *327:8 39.9057 
2 *327:8 *1239:D 41.0036 
*END

*D_NET *328 0.00128663
*CONN
*I *1155:B1 I *D sky130_fd_sc_hd__a21o_1
*I *1307:X O *D sky130_fd_sc_hd__dlygate4sd3_1
*CAP
1 *1155:B1 0
2 *1307:X 0.000395703
3 *328:8 0.000395703
4 *328:8 *1155:A1 2.02517e-05
5 *1308:A *328:8 0.000310653
6 *193:62 *328:8 5.50049e-05
7 *240:16 *328:8 6.58298e-05
8 *268:56 *328:8 4.34876e-05
*RES
1 *1307:X *328:8 30.7886 
2 *328:8 *1155:B1 23 
*END

*D_NET *329 0.000471818
*CONN
*I *1237:D I *D sky130_fd_sc_hd__dfrtp_1
*I *1308:X O *D sky130_fd_sc_hd__dlygate4sd3_1
*CAP
1 *1237:D 8.44166e-05
2 *1308:X 3.66812e-05
3 *329:8 0.000121098
4 *1237:D *1020:A0 5.25848e-05
5 *247:52 *329:8 8.85189e-05
6 *262:14 *329:8 8.85189e-05
*RES
1 *1308:X *329:8 39.2014 
2 *329:8 *1237:D 39.595 
*END

*D_NET *330 0.00094101
*CONN
*I *1041:A1 I *D sky130_fd_sc_hd__a22o_1
*I *1309:X O *D sky130_fd_sc_hd__dlygate4sd3_1
*CAP
1 *1041:A1 0
2 *1309:X 0.000256878
3 *330:6 0.000256878
4 *1032:S *330:6 0.000141954
5 *1040:B *330:6 5.50106e-05
6 *138:53 *330:6 9.60509e-05
7 *138:55 *330:6 5.79042e-05
8 *138:59 *330:6 2.30292e-05
9 *152:10 *330:6 5.3304e-05
*RES
1 *1309:X *330:6 28.8621 
2 *330:6 *1041:A1 23 
*END

*D_NET *331 0.000644418
*CONN
*I *1090:B1 I *D sky130_fd_sc_hd__o21ai_1
*I *1310:X O *D sky130_fd_sc_hd__dlygate4sd3_1
*CAP
1 *1090:B1 0
2 *1310:X 0.000208983
3 *331:6 0.000208983
4 *136:40 *331:6 0.000221079
5 *185:10 *331:6 5.37348e-06
*RES
1 *1310:X *331:6 27.4329 
2 *331:6 *1090:B1 23 
*END

*D_NET *332 0.00103978
*CONN
*I *1159:B1 I *D sky130_fd_sc_hd__a41o_1
*I *1311:X O *D sky130_fd_sc_hd__dlygate4sd3_1
*CAP
1 *1159:B1 8.96521e-05
2 *1311:X 0.000126733
3 *332:8 0.000216385
4 *1159:B1 *1159:A1 5.42932e-05
5 *1159:A3 *1159:B1 4.57984e-05
6 *43:10 *332:8 0
7 *154:108 *1159:B1 0.000144501
8 *240:8 *1159:B1 0.000362421
*RES
1 *1311:X *332:8 39.9057 
2 *332:8 *1159:B1 41.9564 
*END

*D_NET *333 0.000771558
*CONN
*I *1269:D I *D sky130_fd_sc_hd__dfrtp_1
*I *1312:X O *D sky130_fd_sc_hd__dlygate4sd3_1
*CAP
1 *1269:D 0.000238919
2 *1312:X 6.19464e-05
3 *333:8 0.000300865
4 *333:8 *355:48 4.08641e-05
5 *230:23 *333:8 0
6 *241:12 *1269:D 0.000128964
*RES
1 *1312:X *333:8 39.2014 
2 *333:8 *1269:D 41.9771 
*END

*D_NET *334 0.000848238
*CONN
*I *1045:A1 I *D sky130_fd_sc_hd__o211a_1
*I *1313:X O *D sky130_fd_sc_hd__dlygate4sd3_1
*CAP
1 *1045:A1 0.00024998
2 *1313:X 6.14794e-05
3 *334:8 0.000311459
4 *1231:A *1045:A1 5.50049e-05
5 *1231:A *334:8 8.85189e-05
6 *1276:RESET_B *334:8 0
7 *122:10 *1045:A1 8.1796e-05
*RES
1 *1313:X *334:8 39.2014 
2 *334:8 *1045:A1 43.3029 
*END

*D_NET *335 0.00173681
*CONN
*I *1158:B1 I *D sky130_fd_sc_hd__a31o_1
*I *1291:X O *D sky130_fd_sc_hd__dlygate4sd3_1
*CAP
1 *1158:B1 0
2 *1291:X 0.000288656
3 *335:10 0.000288656
4 *335:10 *1020:A0 0.000145238
5 *335:10 *1056:A 5.50049e-05
6 *335:10 *336:10 9.41704e-05
7 *335:10 *352:20 4.76901e-05
8 *335:10 *354:78 0.000664671
9 *1158:A3 *335:10 4.38999e-05
10 *1292:A *335:10 0.000108826
*RES
1 *1291:X *335:10 31.8864 
2 *335:10 *1158:B1 23 
*END

*D_NET *336 0.00117847
*CONN
*I *1272:D I *D sky130_fd_sc_hd__dfrtp_1
*I *1292:X O *D sky130_fd_sc_hd__dlygate4sd3_1
*CAP
1 *1272:D 0.000101303
2 *1292:X 0.000143803
3 *336:10 0.000245106
4 *1292:A *336:10 9.41704e-05
5 *131:127 *336:10 0.000135547
6 *132:128 *336:10 5.30621e-05
7 *133:101 *336:10 0.000241355
8 *268:31 *1272:D 6.99492e-05
9 *335:10 *336:10 9.41704e-05
*RES
1 *1292:X *336:10 42.4121 
2 *336:10 *1272:D 39.5743 
*END

*D_NET *337 0.0055725
*CONN
*I *1028:A0 I *D sky130_fd_sc_hd__mux2_1
*I *1321:X O *D sky130_fd_sc_hd__clkbuf_1
*CAP
1 *1028:A0 0
2 *1321:X 3.83793e-05
3 *337:10 0.000953587
4 *337:8 0.000991967
5 *337:10 *348:14 0
6 *136:55 *337:10 0.000357939
7 *251:122 *337:10 0.000253235
8 *296:40 *337:10 0.000657377
9 *298:16 *337:8 5.67058e-05
10 *298:16 *337:10 0.000333228
11 *298:23 *337:10 0.000175346
12 *298:36 *337:10 0.000329158
13 *303:33 *337:10 0.00142558
*RES
1 *1321:X *337:8 38.6214 
2 *337:8 *337:10 35.0071 
3 *337:10 *1028:A0 38 
*END

*D_NET *338 0.000595091
*CONN
*I *1157:A1 I *D sky130_fd_sc_hd__a22o_1
*I *1293:X O *D sky130_fd_sc_hd__dlygate4sd3_1
*CAP
1 *1157:A1 0.000148199
2 *1293:X 6.14794e-05
3 *338:8 0.000209678
4 *338:8 *354:59 8.85189e-05
5 *1157:A2 *1157:A1 2.02517e-05
6 *1157:B1 *1157:A1 2.93845e-05
7 *1157:B2 *1157:A1 4.00259e-06
8 *154:20 *1157:A1 2.98648e-05
9 *154:24 *1157:A1 3.7122e-06
10 *305:16 *338:8 0
*RES
1 *1293:X *338:8 39.2014 
2 *338:8 *1157:A1 40.9207 
*END

*D_NET *339 0.000510019
*CONN
*I *1037:A1 I *D sky130_fd_sc_hd__mux2_1
*I *1294:X O *D sky130_fd_sc_hd__dlygate4sd3_1
*CAP
1 *1037:A1 0.000150751
2 *1294:X 7.99533e-05
3 *339:8 0.000230704
4 *1037:A0 *1037:A1 4.86103e-05
5 *1041:B2 *339:8 0
6 *276:23 *339:8 0
*RES
1 *1294:X *339:8 39.2014 
2 *339:8 *1037:A1 40.0507 
*END

*D_NET *340 0.000884412
*CONN
*I *1112:A0 I *D sky130_fd_sc_hd__mux2_1
*I *1295:X O *D sky130_fd_sc_hd__dlygate4sd3_1
*CAP
1 *1112:A0 0.000177252
2 *1295:X 9.47599e-05
3 *340:8 0.000272012
4 *1103:B_N *340:8 0
5 *1112:A1 *1112:A0 0.000228001
6 *194:14 *340:8 1.37246e-05
7 *198:18 *340:8 1.01436e-05
8 *202:8 *340:8 0
9 *243:10 *340:8 0
10 *294:31 *340:8 8.85189e-05
*RES
1 *1295:X *340:8 39.9057 
2 *340:8 *1112:A0 41.9564 
*END

*D_NET *341 0.000573163
*CONN
*I *1029:A1 I *D sky130_fd_sc_hd__mux2_1
*I *1296:X O *D sky130_fd_sc_hd__dlygate4sd3_1
*CAP
1 *1029:A1 0.000105671
2 *1296:X 7.03047e-05
3 *341:8 0.000175976
4 *1029:A0 *1029:A1 5.50049e-05
5 *1029:S *1029:A1 6.17437e-06
6 *1296:A *341:8 0
7 *138:20 *1029:A1 7.15126e-05
8 *146:8 *341:8 8.85189e-05
*RES
1 *1296:X *341:8 39.2014 
2 *341:8 *1029:A1 40.0714 
*END

*D_NET *342 0.00127618
*CONN
*I *1021:A1 I *D sky130_fd_sc_hd__mux2_1
*I *1297:X O *D sky130_fd_sc_hd__dlygate4sd3_1
*CAP
1 *1021:A1 0
2 *1297:X 0.000559526
3 *342:10 0.000559526
4 *1019:A *342:10 2.64616e-05
5 *1022:A *342:10 7.87243e-05
6 *128:10 *342:10 3.70553e-06
7 *241:24 *342:10 4.82364e-05
*RES
1 *1297:X *342:10 31.2857 
2 *342:10 *1021:A1 23 
*END

*D_NET *343 0.000876433
*CONN
*I *1013:A1 I *D sky130_fd_sc_hd__mux2_1
*I *1298:X O *D sky130_fd_sc_hd__dlygate4sd3_1
*CAP
1 *1013:A1 0
2 *1298:X 0.000377382
3 *343:6 0.000377382
4 *1013:A0 *343:6 2.30292e-05
5 *1014:A *343:6 5.79559e-05
6 *306:10 *343:6 4.06849e-05
*RES
1 *1298:X *343:6 29.3386 
2 *343:6 *1013:A1 23 
*END

*D_NET *344 9.19514e-05
*CONN
*I *1052:B2 I *D sky130_fd_sc_hd__a32o_1
*I *1299:X O *D sky130_fd_sc_hd__dlygate4sd3_1
*CAP
1 *1052:B2 3.1309e-05
2 *1299:X 3.1309e-05
3 *187:6 *1052:B2 2.93335e-05
*RES
1 *1299:X *1052:B2 46.6214 
*END

*D_NET *345 0.000681312
*CONN
*I *1060:A0 I *D sky130_fd_sc_hd__mux2_1
*I *1300:X O *D sky130_fd_sc_hd__dlygate4sd3_1
*CAP
1 *1060:A0 0.000189992
2 *1300:X 6.55146e-05
3 *345:8 0.000255506
4 *1060:A1 *1060:A0 1.76557e-05
5 *1302:A *1060:A0 0
6 *29:8 *1060:A0 1.32939e-05
7 *248:20 *1060:A0 9.84851e-05
8 *248:20 *345:8 4.08641e-05
9 *249:29 *345:8 0
*RES
1 *1300:X *345:8 39.2014 
2 *345:8 *1060:A0 41.2521 
*END

*D_NET *346 0.000173355
*CONN
*I *1061:A I *D sky130_fd_sc_hd__clkbuf_1
*I *1302:X O *D sky130_fd_sc_hd__dlygate4sd3_1
*CAP
1 *1061:A 7.57329e-05
2 *1302:X 7.57329e-05
3 *119:10 *1061:A 2.18888e-05
*RES
1 *1302:X *1061:A 47.5743 
*END

*D_NET *347 0.000715509
*CONN
*I *1025:A1 I *D sky130_fd_sc_hd__mux2_1
*I *1303:X O *D sky130_fd_sc_hd__dlygate4sd3_1
*CAP
1 *1025:A1 0
2 *1303:X 0.000105619
3 *347:8 0.000105619
4 *88:10 *347:8 0.000199701
5 *277:28 *347:8 0
6 *303:33 *347:8 0.00030457
*RES
1 *1303:X *347:8 42.0186 
2 *347:8 *1025:A1 38 
*END

*D_NET *348 0.00506579
*CONN
*I *1024:A0 I *D sky130_fd_sc_hd__mux2_1
*I *1322:X O *D sky130_fd_sc_hd__clkbuf_1
*CAP
1 *1024:A0 0
2 *1322:X 0.000160353
3 *348:14 0.00112141
4 *348:10 0.00128177
5 *1064:S *348:10 0
6 *1064:S *348:14 0
7 *1329:A *348:10 0
8 *70:10 *348:14 0.000199701
9 *136:40 *348:14 0.000302339
10 *250:146 *348:14 0.000783729
11 *250:152 *348:14 0.000910063
12 *251:122 *348:14 0.000306423
13 *288:12 *348:14 0
14 *303:33 *348:14 0
15 *313:41 *348:14 0
16 *337:10 *348:14 0
*RES
1 *1322:X *348:10 39.9782 
2 *348:10 *348:14 46.4546 
3 *348:14 *1024:A0 23 
*END

*D_NET *349 0.000564253
*CONN
*I *1017:A1 I *D sky130_fd_sc_hd__mux2_1
*I *1304:X O *D sky130_fd_sc_hd__dlygate4sd3_1
*CAP
1 *1017:A1 0.000169779
2 *1304:X 5.94633e-05
3 *349:8 0.000229242
4 *1017:S *1017:A1 1.94812e-05
5 *307:21 *349:8 8.62876e-05
*RES
1 *1304:X *349:8 39.2014 
2 *349:8 *1017:A1 40.0507 
*END

*D_NET *350 0.000560841
*CONN
*I *1062:A0 I *D sky130_fd_sc_hd__mux2_1
*I *1305:X O *D sky130_fd_sc_hd__dlygate4sd3_1
*CAP
1 *1062:A0 0
2 *1305:X 0.000193654
3 *350:6 0.000193654
4 *1340:A *350:6 3.22879e-05
5 *300:16 *350:6 0.000141246
*RES
1 *1305:X *350:6 27.4329 
2 *350:6 *1062:A0 23 
*END

*D_NET *351 0.00159396
*CONN
*I *1154:A1 I *D sky130_fd_sc_hd__a31o_1
*I *1306:X O *D sky130_fd_sc_hd__dlygate4sd3_1
*CAP
1 *1154:A1 0
2 *1306:X 0.000479998
3 *351:10 0.000479998
4 *351:10 *354:59 0
5 *1153:A2 *351:10 0.000205045
6 *158:27 *351:10 0.000107242
7 *187:10 *351:10 7.55491e-05
8 *187:14 *351:10 6.6869e-05
9 *233:8 *351:10 0.000140949
10 *305:16 *351:10 3.83059e-05
11 *305:24 *351:10 0
*RES
1 *1306:X *351:10 47.5907 
2 *351:10 *1154:A1 38 
*END

*D_NET *352 0.0121966
*CONN
*I *1020:A0 I *D sky130_fd_sc_hd__mux2_1
*I *1323:X O *D sky130_fd_sc_hd__buf_1
*CAP
1 *1020:A0 0.00111171
2 *1323:X 0
3 *352:20 0.00245075
4 *352:10 0.0029507
5 *352:4 0.00161165
6 *1020:A0 *354:78 0.000141118
7 *1020:A0 *361:25 7.9199e-05
8 *1127:A2 *352:10 2.93845e-05
9 *1127:B1 *352:10 3.17516e-05
10 *1127:B2 *352:10 0.000139357
11 *1144:A *352:10 2.93747e-05
12 *1158:A3 *352:20 0.000500002
13 *1171:A1 *352:10 0.00034291
14 *1171:S *352:10 9.67842e-05
15 *1237:D *1020:A0 5.25848e-05
16 *1292:A *352:20 0.000305431
17 *142:10 *1020:A0 3.52383e-05
18 *154:96 *352:20 0.000269769
19 *203:18 *352:10 0
20 *214:10 *352:10 9.8203e-05
21 *227:10 *352:10 5.50106e-05
22 *256:41 *352:10 0.000105706
23 *261:65 *352:10 4.53056e-05
24 *267:12 *352:10 9.5877e-05
25 *267:21 *352:10 0.00089427
26 *267:23 *352:10 0.000189157
27 *303:6 *1020:A0 0.000123934
28 *303:29 *1020:A0 0.000218503
29 *335:10 *1020:A0 0.000145238
30 *335:10 *352:20 4.76901e-05
*RES
1 *1323:X *352:4 23 
2 *352:4 *352:10 49.1993 
3 *352:10 *352:20 35.2171 
4 *352:20 *1020:A0 46.0343 
*END

*D_NET *353 0.000571473
*CONN
*I *1016:A0 I *D sky130_fd_sc_hd__mux2_1
*I *1324:X O *D sky130_fd_sc_hd__clkbuf_1
*CAP
1 *1016:A0 0.000142377
2 *1324:X 5.43334e-05
3 *353:8 0.00019671
4 *1324:A *353:8 2.5415e-05
5 *136:95 *1016:A0 1.32939e-05
6 *307:21 *1016:A0 9.84794e-05
7 *307:21 *353:8 4.08641e-05
*RES
1 *1324:X *353:8 39.2014 
2 *353:8 *1016:A0 40.0507 
*END

*D_NET *354 0.0142991
*CONN
*I *1158:A1 I *D sky130_fd_sc_hd__a31o_1
*I *1056:A I *D sky130_fd_sc_hd__inv_2
*I *1180:A I *D sky130_fd_sc_hd__or2_1
*I *1051:A1 I *D sky130_fd_sc_hd__a211o_1
*I *1160:A2 I *D sky130_fd_sc_hd__o32a_1
*I *1306:A I *D sky130_fd_sc_hd__dlygate4sd3_1
*I *1264:Q O *D sky130_fd_sc_hd__dfrtp_4
*CAP
1 *1158:A1 0
2 *1056:A 5.983e-05
3 *1180:A 2.09288e-05
4 *1051:A1 0
5 *1160:A2 0.000238927
6 *1306:A 5.145e-05
7 *1264:Q 0.000387646
8 *354:80 5.983e-05
9 *354:78 0.000939749
10 *354:59 0.00182988
11 *354:48 6.56375e-05
12 *354:33 0.00103199
13 *354:25 0.00152253
14 *354:21 0.00162665
15 *354:10 0.000532703
16 *1160:A2 *1160:A1 0.000645959
17 *1160:A2 *357:96 2.64616e-05
18 *1180:A *361:10 1.39431e-05
19 *354:33 *1299:A 4.842e-05
20 *354:33 *355:10 0.000108681
21 *354:33 *357:96 0
22 *354:78 *359:119 0
23 *354:78 *361:10 8.4047e-05
24 *1020:A0 *354:78 0.000141118
25 *1049:B *354:25 0.000137651
26 *1051:B1 *354:25 5.3304e-05
27 *1051:B1 *354:33 0.000208184
28 *1051:B1 *354:48 5.50049e-05
29 *1156:C1 *354:25 0.000152796
30 *1158:A3 *1056:A 0.000187968
31 *1159:A2 *354:78 0
32 *1160:A3 *1160:A2 3.75301e-05
33 *1160:B2 *1160:A2 5.50049e-05
34 *2:17 *354:33 9.16471e-05
35 *77:8 *354:33 0.000459638
36 *132:20 *1180:A 5.50106e-05
37 *154:70 *1160:A2 1.21972e-05
38 *154:77 *1160:A2 2.4254e-05
39 *154:96 *1160:A2 7.06229e-05
40 *155:96 *354:48 5.58473e-05
41 *155:125 *354:78 8.72173e-05
42 *156:10 *354:10 0.000397455
43 *156:60 *354:25 5.61255e-06
44 *156:60 *354:48 2.93747e-05
45 *156:79 *354:25 1.95556e-05
46 *158:27 *354:25 5.14746e-06
47 *159:38 *354:33 0.000356602
48 *159:71 *354:25 5.91134e-05
49 *159:77 *354:10 0.000141879
50 *159:77 *354:21 0.000167443
51 *159:77 *354:59 6.48142e-05
52 *181:23 *354:10 2.93747e-05
53 *187:10 *354:59 0
54 *187:14 *354:10 0
55 *187:14 *354:21 0
56 *187:14 *354:59 0
57 *191:31 *354:33 0
58 *193:50 *354:59 0
59 *193:50 *354:78 0
60 *237:29 *354:33 0
61 *261:8 *354:48 2.2119e-05
62 *266:61 *354:10 5.3304e-05
63 *305:16 *354:59 0
64 *305:48 *354:59 0.000348475
65 *310:10 *354:59 0.000155059
66 *310:12 *354:59 0.000406871
67 *310:20 *354:10 4.842e-05
68 *335:10 *1056:A 5.50049e-05
69 *335:10 *354:78 0.000664671
70 *338:8 *354:59 8.85189e-05
71 *351:10 *354:59 0
*RES
1 *1264:Q *354:10 47.2179 
2 *354:10 *1306:A 38.6214 
3 *354:10 *354:21 2.25786 
4 *354:21 *354:25 24.1971 
5 *354:25 *354:33 45.2871 
6 *354:33 *1160:A2 30.2914 
7 *354:25 *354:48 31.4707 
8 *354:48 *1051:A1 23 
9 *354:21 *354:59 18.1664 
10 *354:59 *1180:A 38.6214 
11 *354:59 *354:78 44.4379 
12 *354:78 *354:80 15 
13 *354:80 *1056:A 25.0507 
14 *354:80 *1158:A1 23 
*END

*D_NET *355 0.00981805
*CONN
*I *1299:A I *D sky130_fd_sc_hd__dlygate4sd3_1
*I *1149:A0 I *D sky130_fd_sc_hd__mux2_1
*I *1182:A I *D sky130_fd_sc_hd__or2_1
*I *1159:A1 I *D sky130_fd_sc_hd__a41o_1
*I *1160:A1 I *D sky130_fd_sc_hd__o32a_1
*I *1266:Q O *D sky130_fd_sc_hd__dfrtp_1
*CAP
1 *1299:A 0.000121582
2 *1149:A0 0.000236494
3 *1182:A 0
4 *1159:A1 6.64443e-05
5 *1160:A1 0.000658839
6 *1266:Q 8.16808e-05
7 *355:48 0.00159036
8 *355:25 0.00206261
9 *355:10 0.00139356
10 *355:8 0.00029569
11 *1149:A1 *1149:A0 0.0002263
12 *1159:A2 *355:25 5.19173e-05
13 *1159:B1 *1159:A1 5.42932e-05
14 *1160:A2 *1160:A1 0.000645959
15 *1160:A3 *1160:A1 1.20374e-05
16 *2:17 *355:25 0
17 *43:10 *355:48 0.000354778
18 *76:10 *355:48 0
19 *77:8 *1299:A 0.000166504
20 *81:10 *355:25 0.000191157
21 *134:14 *355:48 0
22 *154:96 *355:25 0
23 *154:108 *355:25 0.000137173
24 *154:108 *355:48 2.67935e-05
25 *163:22 *1299:A 0.000273614
26 *163:22 *355:10 4.74809e-05
27 *163:22 *355:25 0.000318084
28 *193:14 *355:8 5.25848e-05
29 *235:8 *1160:A1 1.8788e-05
30 *245:12 *355:48 0.000100415
31 *246:91 *355:48 0.000422512
32 *267:73 *1149:A0 1.24376e-05
33 *333:8 *355:48 4.08641e-05
34 *354:33 *1299:A 4.842e-05
35 *354:33 *355:10 0.000108681
*RES
1 *1266:Q *355:8 39.0979 
2 *355:8 *355:10 1.55357 
3 *355:10 *1160:A1 47.9429 
4 *355:10 *355:25 14.2307 
5 *355:25 *1159:A1 39.2843 
6 *355:25 *355:48 43.3579 
7 *355:48 *1182:A 23 
8 *355:48 *1149:A0 27.9507 
9 *355:8 *1299:A 42.2879 
*END

*D_NET *356 0.00319912
*CONN
*I *1012:A I *D sky130_fd_sc_hd__nand2_4
*I *1156:A1 I *D sky130_fd_sc_hd__o211a_1
*I *1088:A1 I *D sky130_fd_sc_hd__mux2_1
*I *1253:Q O *D sky130_fd_sc_hd__dfrtp_1
*CAP
1 *1012:A 0
2 *1156:A1 0
3 *1088:A1 3.41136e-05
4 *1253:Q 0
5 *356:44 0.000164582
6 *356:27 0.000157928
7 *356:10 0.00107911
8 *356:4 0.00105165
9 *356:44 *362:20 8.62783e-05
10 *1088:S *1088:A1 9.67842e-05
11 *1088:S *356:10 8.17328e-05
12 *1156:A2 *356:27 5.90675e-06
13 *1253:D *356:10 2.7237e-05
14 *126:10 *356:44 0
15 *138:12 *356:44 6.29487e-05
16 *159:71 *356:27 9.72057e-06
17 *234:10 *356:27 0.000138718
18 *293:118 *1088:A1 2.93845e-05
19 *293:135 *1088:A1 2.18409e-05
20 *293:135 *356:10 8.43115e-05
21 *310:12 *356:27 6.6869e-05
*RES
1 *1253:Q *356:4 23 
2 *356:4 *356:10 12.0971 
3 *356:10 *1088:A1 24.0979 
4 *356:10 *356:27 33.7286 
5 *356:27 *1156:A1 23 
6 *356:4 *356:44 33.6457 
7 *356:44 *1012:A 23 
*END

*D_NET *357 0.00949379
*CONN
*I *1093:A I *D sky130_fd_sc_hd__or3_2
*I *1148:A I *D sky130_fd_sc_hd__nand2_1
*I *1050:A I *D sky130_fd_sc_hd__inv_2
*I *1046:A I *D sky130_fd_sc_hd__clkbuf_4
*I *1075:A1 I *D sky130_fd_sc_hd__a32o_1
*I *1084:B I *D sky130_fd_sc_hd__nand2_1
*I *1082:A1 I *D sky130_fd_sc_hd__a31o_1
*I *1059:A I *D sky130_fd_sc_hd__nor3b_2
*I *1268:Q O *D sky130_fd_sc_hd__dfstp_2
*CAP
1 *1093:A 0
2 *1148:A 0
3 *1050:A 1.89728e-05
4 *1046:A 0
5 *1075:A1 0
6 *1084:B 3.76666e-05
7 *1082:A1 0.000177313
8 *1059:A 6.54289e-05
9 *1268:Q 0.000101315
10 *357:96 0.000278434
11 *357:88 0.000433831
12 *357:77 0.000531121
13 *357:61 0.00057987
14 *357:44 0.000617537
15 *357:31 0.000302431
16 *357:25 0.00037758
17 *357:19 0.00078723
18 *357:6 0.000344761
19 *1059:A *1110:B1 0
20 *357:19 *359:40 2.64616e-05
21 *357:25 *359:40 6.25829e-05
22 *357:77 *1093:B 2.14535e-05
23 *357:77 *359:30 6.15719e-05
24 *357:77 *359:40 0.000557121
25 *1084:A *1082:A1 1.01436e-05
26 *1084:A *357:31 6.25829e-05
27 *1084:A *357:61 1.14154e-05
28 *1085:A1 *1082:A1 2.27464e-05
29 *1160:A2 *357:96 2.64616e-05
30 *1268:D *1059:A 5.50106e-05
31 *1268:D *357:6 0.000139346
32 *2:17 *357:96 0
33 *154:77 *357:96 5.3304e-05
34 *155:6 *357:25 2.18888e-05
35 *157:27 *357:61 0
36 *165:8 *357:25 3.21327e-05
37 *165:8 *357:31 3.84694e-05
38 *165:22 *1082:A1 0.00010457
39 *165:52 *357:61 0.000319683
40 *181:6 *357:61 9.58714e-05
41 *181:23 *357:61 0.000915526
42 *186:22 *357:77 9.90115e-05
43 *186:22 *357:88 0.000120866
44 *191:6 *357:77 0.000102389
45 *191:6 *357:88 0.000167318
46 *191:31 *357:88 0.000136743
47 *201:12 *357:77 2.95125e-05
48 *237:29 *357:96 0.000428682
49 *250:75 *1059:A 5.9836e-05
50 *250:75 *357:19 0.000100561
51 *251:53 *1082:A1 0.000217414
52 *251:53 *357:25 0.000182826
53 *251:53 *357:31 0.000366055
54 *274:44 *357:61 0
55 *293:44 *357:25 0
56 *293:67 *1084:B 2.64616e-05
57 *293:67 *357:61 1.5769e-05
58 *293:86 *357:25 3.06213e-05
59 *293:86 *357:31 0.000117892
60 *354:33 *357:96 0
*RES
1 *1268:Q *357:6 25.0507 
2 *357:6 *1059:A 24.9471 
3 *357:6 *357:19 18.48 
4 *357:19 *357:25 20.0129 
5 *357:25 *357:31 19.7643 
6 *357:31 *1082:A1 41.5836 
7 *357:31 *357:44 15 
8 *357:44 *1084:B 23.6214 
9 *357:44 *357:61 44.3343 
10 *357:61 *1075:A1 23 
11 *357:25 *1046:A 23 
12 *357:19 *357:77 24.9429 
13 *357:77 *1050:A 23.4971 
14 *357:77 *357:88 3.97714 
15 *357:88 *357:96 36.4007 
16 *357:96 *1148:A 23 
17 *357:88 *1093:A 23 
*END

*D_NET *358 0.00265757
*CONN
*I *1152:A2 I *D sky130_fd_sc_hd__a31o_1
*I *1166:B I *D sky130_fd_sc_hd__nor2_1
*I *1311:A I *D sky130_fd_sc_hd__dlygate4sd3_1
*I *1269:Q O *D sky130_fd_sc_hd__dfrtp_1
*CAP
1 *1152:A2 0.000273332
2 *1166:B 0
3 *1311:A 2.34823e-05
4 *1269:Q 0.000215119
5 *358:25 0.000647887
6 *358:8 0.000613157
7 *1152:A2 *361:50 0.000407257
8 *358:25 *359:119 7.28526e-05
9 *1224:A *1152:A2 0
10 *83:10 *358:25 9.4713e-05
11 *95:10 *1152:A2 1.41129e-05
12 *193:62 *1152:A2 5.50106e-05
13 *238:10 *1152:A2 3.22465e-05
14 *241:24 *358:8 0.000138287
15 *241:24 *358:25 7.01133e-05
*RES
1 *1269:Q *358:8 27.4536 
2 *358:8 *1311:A 23.4971 
3 *358:8 *358:25 36.8357 
4 *358:25 *1166:B 23 
5 *358:25 *1152:A2 29.8357 
*END

*D_NET *359 0.0169429
*CONN
*I *1167:A1 I *D sky130_fd_sc_hd__o21a_1
*I *1045:B1 I *D sky130_fd_sc_hd__o211a_1
*I *1012:B I *D sky130_fd_sc_hd__nand2_4
*I *1164:B2 I *D sky130_fd_sc_hd__a22o_1
*I *1098:A I *D sky130_fd_sc_hd__inv_2
*I *1093:B I *D sky130_fd_sc_hd__or3_2
*I *1059:C_N I *D sky130_fd_sc_hd__nor3b_2
*I *1110:B1 I *D sky130_fd_sc_hd__o311a_1
*I *1270:Q O *D sky130_fd_sc_hd__dfrtp_4
*CAP
1 *1167:A1 0
2 *1045:B1 4.24211e-05
3 *1012:B 0.000237137
4 *1164:B2 0
5 *1098:A 0
6 *1093:B 0.000273187
7 *1059:C_N 0
8 *1110:B1 0.000104012
9 *1270:Q 0
10 *359:119 0.000881874
11 *359:91 0.000448841
12 *359:87 0.00155509
13 *359:81 0.00254754
14 *359:40 0.000454811
15 *359:30 0.000675079
16 *359:26 0.000613044
17 *359:16 0.000665981
18 *359:12 0.00127708
19 *359:4 0.00145291
20 *1012:B *362:20 0.000222183
21 *359:40 *360:51 0
22 *359:91 *362:20 4.6318e-06
23 *1059:A *1110:B1 0
24 *1100:A *359:26 3.0556e-05
25 *1110:C1 *1110:B1 5.79559e-05
26 *1167:A2 *359:119 0.000124027
27 *1167:B1 *359:119 0.000146195
28 *1231:A *359:91 0
29 *1293:A *359:87 6.70017e-05
30 *41:10 *359:119 6.95594e-05
31 *49:10 *359:87 4.49021e-05
32 *83:10 *359:119 0.000575531
33 *122:10 *359:91 0.000114645
34 *132:10 *359:81 9.75779e-05
35 *132:128 *359:119 0.00014522
36 *133:90 *359:81 0.000228001
37 *133:101 *359:81 9.58714e-05
38 *134:8 *359:81 0.000141954
39 *155:125 *359:12 0.000111852
40 *163:22 *359:12 0
41 *186:22 *359:40 8.06804e-06
42 *191:6 *1093:B 0.00027007
43 *191:31 *1093:B 4.17736e-05
44 *192:16 *359:16 2.60152e-05
45 *192:16 *359:26 0.000256461
46 *192:48 *359:16 4.334e-05
47 *193:33 *359:87 0.000105895
48 *201:12 *359:26 0.000235709
49 *201:12 *359:30 1.02387e-05
50 *201:12 *359:40 0.000332366
51 *238:10 *359:119 2.79004e-05
52 *246:24 *359:87 0.000111852
53 *246:24 *359:119 1.01436e-05
54 *247:22 *359:81 0.000167704
55 *250:75 *1110:B1 0.000244783
56 *250:75 *359:40 2.88979e-05
57 *257:8 *359:12 5.0155e-05
58 *257:119 *359:12 4.51675e-05
59 *261:42 *359:87 0
60 *268:31 *359:87 0.000244526
61 *268:31 *359:119 0.000181943
62 *305:16 *359:87 0.000191157
63 *305:48 *359:119 0
64 *354:78 *359:119 0
65 *357:19 *359:40 2.64616e-05
66 *357:25 *359:40 6.25829e-05
67 *357:77 *1093:B 2.14535e-05
68 *357:77 *359:30 6.15719e-05
69 *357:77 *359:40 0.000557121
70 *358:25 *359:119 7.28526e-05
*RES
1 *1270:Q *359:4 23 
2 *359:4 *359:12 45.515 
3 *359:12 *359:16 16.9057 
4 *359:16 *359:26 12.9464 
5 *359:26 *359:30 16.2014 
6 *359:30 *359:40 39.6114 
7 *359:40 *1110:B1 26.5214 
8 *359:40 *1059:C_N 23 
9 *359:30 *1093:B 26.9564 
10 *359:26 *1098:A 38 
11 *359:16 *1164:B2 38 
12 *359:4 *359:81 21.815 
13 *359:81 *359:87 35.8179 
14 *359:87 *359:91 19.0186 
15 *359:91 *1012:B 43.7793 
16 *359:91 *1045:B1 38.6214 
17 *359:81 *359:119 36.5429 
18 *359:119 *1167:A1 23 
*END

*D_NET *360 0.00508767
*CONN
*I *1059:B I *D sky130_fd_sc_hd__nor3b_2
*I *1092:A I *D sky130_fd_sc_hd__clkbuf_4
*I *1104:A2 I *D sky130_fd_sc_hd__a21bo_1
*I *1103:A I *D sky130_fd_sc_hd__or2b_1
*I *1271:Q O *D sky130_fd_sc_hd__dfrtp_1
*CAP
1 *1059:B 0
2 *1092:A 0
3 *1104:A2 0.000255993
4 *1103:A 0.000303636
5 *1271:Q 0.000233934
6 *360:51 0.000615879
7 *360:18 0.00092178
8 *360:12 0.000581353
9 *360:10 0.000835081
10 *360:8 0.000233934
11 *1103:B_N *1103:A 2.30292e-05
12 *1196:A *1103:A 1.73399e-05
13 *1198:B *360:18 2.46345e-05
14 *1199:A *360:18 9.41704e-05
15 *1199:B *360:18 5.3304e-05
16 *42:10 *360:51 7.91596e-05
17 *131:10 *360:18 0.000193575
18 *131:14 *360:8 0
19 *131:61 *360:8 0.000140671
20 *131:76 *360:8 6.67764e-05
21 *186:10 *360:8 0
22 *186:10 *360:12 1.57322e-05
23 *186:10 *360:18 1.14876e-05
24 *186:40 *360:8 0
25 *201:12 *360:51 0
26 *249:59 *1103:A 0.000167443
27 *249:59 *360:18 0.000139647
28 *293:44 *360:51 7.91102e-05
29 *359:40 *360:51 0
*RES
1 *1271:Q *360:8 43.4271 
2 *360:8 *360:10 15 
3 *360:10 *360:12 3.48 
4 *360:12 *360:18 22.6436 
5 *360:18 *1103:A 43.2614 
6 *360:18 *1104:A2 42.4329 
7 *360:12 *1092:A 23 
8 *360:10 *360:51 40.3364 
9 *360:51 *1059:B 23 
*END

*D_NET *361 0.0048486
*CONN
*I *1151:A I *D sky130_fd_sc_hd__inv_2
*I *1166:A I *D sky130_fd_sc_hd__nor2_1
*I *1155:A1 I *D sky130_fd_sc_hd__a21o_1
*I *1291:A I *D sky130_fd_sc_hd__dlygate4sd3_1
*I *1272:Q O *D sky130_fd_sc_hd__dfrtp_1
*CAP
1 *1151:A 0.000414891
2 *1166:A 0
3 *1155:A1 3.84953e-05
4 *1291:A 0
5 *1272:Q 0.000237546
6 *361:50 0.000323088
7 *361:40 0.000974788
8 *361:25 0.00058361
9 *361:12 0.000308306
10 *361:10 0.000237546
11 *1020:A0 *361:25 7.9199e-05
12 *1152:A2 *361:50 0.000407257
13 *1152:B1 *1151:A 0.000123754
14 *1155:A2 *1155:A1 3.01693e-05
15 *1180:A *361:10 1.39431e-05
16 *95:10 *1151:A 0.000139357
17 *95:10 *361:50 0.000192656
18 *132:20 *361:10 6.50506e-06
19 *193:50 *361:10 5.26204e-05
20 *193:62 *1155:A1 3.7877e-05
21 *193:62 *361:25 3.0647e-05
22 *193:62 *361:40 0.000179682
23 *262:14 *361:25 2.01531e-05
24 *262:35 *361:40 3.83778e-05
25 *262:35 *361:50 5.94125e-05
26 *268:6 *1155:A1 1.24376e-05
27 *268:10 *361:25 0.000136486
28 *268:10 *361:40 2.46345e-05
29 *268:56 *1155:A1 4.08664e-05
30 *328:8 *1155:A1 2.02517e-05
31 *354:78 *361:10 8.4047e-05
*RES
1 *1272:Q *361:10 41.8321 
2 *361:10 *361:12 15 
3 *361:12 *1291:A 23 
4 *361:12 *361:25 20.2821 
5 *361:25 *1155:A1 39.1186 
6 *361:25 *361:40 20.075 
7 *361:40 *361:50 36.8564 
8 *361:50 *1166:A 23 
9 *361:40 *1151:A 29.235 
*END

*D_NET *362 0.00214682
*CONN
*I *1310:A I *D sky130_fd_sc_hd__dlygate4sd3_1
*I *1045:A2 I *D sky130_fd_sc_hd__o211a_1
*I *1252:Q O *D sky130_fd_sc_hd__dfrtp_1
*CAP
1 *1310:A 0
2 *1045:A2 0
3 *1252:Q 0.000174344
4 *362:20 0.000651421
5 *362:12 0.000651421
6 *362:10 0.000174344
7 *1012:B *362:20 0.000222183
8 *1072:A1 *362:10 5.67058e-05
9 *1231:A *362:20 0
10 *126:10 *362:20 0
11 *136:40 *362:20 0.000125488
12 *320:8 *362:20 0
13 *356:44 *362:20 8.62783e-05
14 *359:91 *362:20 4.6318e-06
*RES
1 *1252:Q *362:10 40.8793 
2 *362:10 *362:12 15 
3 *362:12 *362:20 43.5886 
4 *362:20 *1045:A2 23 
5 *362:12 *1310:A 23 
*END
